Metallosilicon amino acid: MSA-9f1ce2d2
1.0
  20.000000   0.000000   0.000000
  0.000000   20.000000   0.000000
  0.000000   0.000000   20.000000
      Si       P       N      Ti       S       H       F
       6       2       1       1       3      16       1
Cartesian
  12.92540165  9.98015618  10.63433945
  11.82511427  8.03365720  10.80550473
  7.89196492  9.93116075  10.79726954
  7.46271396  11.24902703  9.28228016
  10.41902073  9.98640312  10.55711581
  10.40310319  12.40945680  10.75930048
  10.38362947  7.66581774  10.75006608
  10.38828012  10.10928484  13.03648447
  10.39456936  9.97174802  8.37327484
  13.56282359  7.71342367  10.75622418
  14.04323768  8.69082383  9.54296203
  13.22164100  6.50950831  11.43133997
  8.06668826  10.50347923  7.12260207
  6.25660058  10.18910892  8.33813022
  7.04613006  11.47116327  6.50798703
  7.31709342  11.60244707  9.22588675
  7.99447703  10.26222549  8.70015240
  11.60439728  9.85367355  9.76218003
  12.73352864  8.02591711  12.03097871
  7.36880307  12.64670397  9.56937843
  9.91705980  11.06523251  10.43976113
  10.20728079  13.77192492  11.19954662
  11.00350764  12.12164391  9.35056215
  11.70952705  7.04311056  11.21578520
  11.91594573  7.75788318  10.38539769
  10.20385010  7.22373227  12.26560135
  10.51133501  9.55356767  11.48314855
  9.71335153  9.75626113  7.07289826
  7.73899386  13.15013359  9.57719401
  5.76993023  11.75132415  9.02664771