Metallosilicon amino acid: MSA-60680808
1.0
  20.000000   0.000000   0.000000
  0.000000   20.000000   0.000000
  0.000000   0.000000   20.000000
      Si       N      Fe      Al       H       S       F
       6       3       1       1      15       1       1
Cartesian
  10.14186398  11.26068111  11.54960216
  10.12730081  9.40457190  11.73048392
  10.15180282  8.61318738  8.95362594
  11.61233841  9.09525209  7.90059967
  8.75505920  9.99924871  10.31936369
  7.40904954  11.26614959  8.85072897
  7.48136460  8.64769380  11.69156459
  10.49593282  9.52521344  12.92215156
  11.36116302  10.99226253  12.35923246
  10.41089656  10.10696744  11.89219405
  13.81884925  9.81371721  8.08813329
  15.40450529  11.21659572  7.65934060
  12.77718442  8.78872685  8.65528399
  9.86509580  9.32201443  6.74943462
  9.20992489  10.06665224  8.06103243
  11.61892941  11.44582413  11.70415039
  10.14846229  10.81607433  12.41608718
  11.35357295  10.67074556  7.79953544
  6.62898861  11.90864533  10.06361083
  8.59170797  12.28753950  9.20929362
  6.73206741  11.18215122  7.62663588
  8.52066744  7.87223185  11.08279413
  8.14076754  7.56635938  10.85415395
  8.09898637  9.93912582  11.47429059
  11.40975203  8.39550439  13.61029874
  11.71337414  11.30866184  13.86141514
  9.04397407  10.40737835  6.20922055
  8.97641839  8.08082386  6.70574165