Metallosilicon amino acid: MSA-9dc69093
1.0
  20.000000   0.000000   0.000000
  0.000000   20.000000   0.000000
  0.000000   0.000000   20.000000
      Si       N      Ti       S       P       H       B       F
       5       2       1       2       1      17       1       1
Cartesian
  12.86621553  10.24124714  9.74406170
  10.96502193  10.34350128  10.35350277
  7.91530183  10.08203085  9.66439480
  9.36973295  10.25523130  8.54900369
  10.31644868  10.22072288  9.79839070
  10.26878075  12.65245590  9.83094805
  10.31205490  7.70703302  9.76408643
  10.33024824  10.25254373  11.99248001
  10.36229255  10.17462512  7.42837797
  11.33924574  10.27443075  11.45715736
  12.64414639  9.74452668  11.00152878
  10.85529389  9.95765516  9.99693449
  10.49051622  8.75204828  9.22310916
  11.10514356  10.12044861  9.04873568
  10.57569764  8.72309333  10.65576745
  6.41819283  9.07176182  11.20097053
  5.12015383  9.35245891  12.23285909
  13.85189516  9.53278387  10.56382068
  11.06764627  11.13071196  11.71624980
  9.18299709  9.01634350  9.24168109
  10.61124515  14.15940990  9.44407391
  10.10280788  11.41533482  10.58474764
  9.87751023  11.31525668  9.10774397
  9.21604275  8.54690783  9.54406228
  10.40378669  8.80427772  8.51573167
  10.89146153  7.18602225  8.43453040
  10.94829717  9.19862200  12.83642627
  10.53146508  10.90689970  6.22983283
  6.34452502  10.59724359  11.17805058
  5.71583252  10.26437142  10.66074024