Metallosilicon amino acid: MSA-8f5a932e
1.0
  20.000000   0.000000   0.000000
  0.000000   20.000000   0.000000
  0.000000   0.000000   20.000000
      Si       B       N      Ni      Al       H       S       F
       6       1       2       1       1      15       1       1
Cartesian
  10.37593179  12.38059245  11.11826371
  11.09959172  13.00831077  12.81564296
  10.46460221  9.76026040  8.41208218
  11.00867540  8.28556315  7.26230234
  9.07223088  11.07288291  9.75163367
  7.79126952  12.38096813  8.45236436
  7.72287353  9.80238014  11.06654691
  11.28422052  10.38949131  12.10293666
  9.34726655  10.22729301  12.31888847
  10.83693074  10.07621912  12.64685864
  11.89712143  7.29737310  9.10446077
  10.71004098  7.01634264  10.88033278
  11.69929437  5.75130094  8.55774256
  11.59809940  7.85390822  9.10451601
  11.87283248  7.43907339  7.42275771
  11.99492249  12.08454770  11.29471594
  10.27948639  13.78800014  11.96116424
  9.56605635  7.53265355  7.12223409
  7.93971064  13.84789120  8.55109499
  6.84039502  12.95139022  7.33934732
  8.66615569  13.54935431  7.88567282
  8.49600055  10.91820623  10.45205099
  7.37880527  8.64511990  11.94643718
  6.85277221  9.15898397  10.06934176
  11.21974108  9.05319106  12.57037524
  10.63442094  10.14646383  11.42594771
  11.62584502  9.23461301  9.48073873
  11.72470681  6.34762522  8.88354925