Metallosilicon amino acid: MSA-2dee178c
1.0
  20.000000   0.000000   0.000000
  0.000000   20.000000   0.000000
  0.000000   0.000000   20.000000
      Si       N      Ti       S       P       H       F
       5       2       1       3       1      16       1
Cartesian
  12.28644885  9.96149312  10.27463632
  12.83811514  10.48189568  12.06173934
  7.44265837  9.93417806  10.16907071
  7.39966127  9.10550454  8.48175324
  9.96498955  10.00456969  10.26725988
  9.80482712  12.36568249  10.21887221
  9.87125528  7.53313153  10.30294128
  9.84341564  9.94717713  12.58436411
  9.93447033  9.99353727  7.86301693
  10.87153993  10.47462364  8.52044509
  11.72305482  11.68109860  8.63479788
  10.05742650  11.45688112  9.32256054
  7.80915381  9.70075419  10.50636460
  8.46030832  10.95141508  10.20021834
  9.69162306  9.45926897  9.80843354
  9.14895573  10.48283317  8.58954181
  11.85324004  11.14895919  10.82148808
  12.32664438  9.13898080  11.60172247
  7.78839971  7.70475008  8.63958786
  9.12849013  12.07070034  11.53247003
  9.83297290  13.51571195  9.10187237
  9.76552992  13.70282750  9.62470276
  9.14339062  8.05753474  11.47733695
  11.38387294  7.28009659  9.96707961
  11.22002522  7.41037857  9.85904762
  10.82882519  9.76449555  11.48534990
  9.01495692  8.76199002  8.19158718
  9.51285679  8.13831187  10.60696770
  11.05289152  9.77121854  9.28477165