Metallosilicon amino acid: MSA-41001ebe
1.0
  20.000000   0.000000   0.000000
  0.000000   20.000000   0.000000
  0.000000   0.000000   20.000000
      Si       N      Fe       H       S       F
       6       3       1      16       1       1
Cartesian
  11.90759269  10.01256347  10.57138838
  13.01415483  8.80383999  9.58685804
  7.57763813  9.94342560  10.56870926
  9.39471276  10.25389477  10.26731911
  9.81080438  10.07489386  10.56729477
  9.79448618  12.31483310  10.59374145
  9.83841983  7.80422827  10.62967833
  10.58402612  11.17597931  10.99415564
  11.70431250  9.19962010  10.44162922
  9.78038602  12.63063234  10.49816612
  7.29865004  10.65596614  9.74475556
  8.39041239  9.51108437  9.59110497
  8.68273490  10.02067274  8.48325613
  10.34606546  10.50780043  8.10368528
  12.14653258  11.47506282  10.69207787
  12.87461294  7.64135773  8.67132420
  8.67510739  9.44987272  9.20888218
  9.67367889  12.02862903  12.14197733
  8.86346821  11.86834687  11.82854177
  10.49583475  12.08770494  9.34365559
  10.46414128  7.74490217  9.25722213
  9.14234848  6.99580059  9.57522076
  10.71193556  8.57800076  11.51576446
  10.63950958  10.17898039  9.82284658
  10.63103498  9.34797243  9.48105466
  11.11850275  9.71654886  11.78305431
  7.25495975  9.80026369  8.88189360
  9.18393665  10.17712251  7.15474228