Metallosilicon amino acid: MSA-6f3ba5fd
1.0
  20.000000   0.000000   0.000000
  0.000000   20.000000   0.000000
  0.000000   0.000000   20.000000
      Si       B       N      Ni       H       C       S       F
       6       1       2       1      16       1       2       1
Cartesian
  11.39086745  11.51950840  11.45376980
  10.18576186  13.05785752  11.89670874
  11.52744549  8.87702932  8.73683166
  10.46116346  7.60369954  9.84989113
  10.21466961  10.13188907  10.09065344
  8.71505973  11.53718235  8.77258740
  8.78774186  8.88591492  11.40926543
  10.86395403  13.18650301  12.19618048
  9.53852126  11.21987657  12.12073485
  9.68713091  12.64675943  11.55627603
  10.17956634  9.17860346  8.86567374
  10.55793054  10.54471471  7.37878065
  8.41351464  8.29886888  9.90470829
  8.79623959  7.39188974  11.07930787
  10.82899384  8.55388586  6.49584239
  10.47138769  6.81478604  6.29683220
  12.47206749  11.44340718  10.36405525
  11.63102560  13.71286751  11.95286732
  9.66453880  7.34449253  8.61089709
  10.20090828  11.63266306  8.30377165
  8.55423998  10.26298303  8.05526134
  8.62160531  11.96616663  10.24875125
  10.16116604  8.68206434  10.88946118
  8.24404980  7.80445203  12.41876372
  8.96091728  7.45545915  10.91871239
  10.03289035  11.33476766  10.69007044
  9.05125603  10.99763402  13.38885172
  11.05125189  11.15359316  12.07244702
  10.82030303  9.42959555  7.63082476
  9.91383182  7.33088533  6.35122077