Metallosilicon amino acid: MSA-3e9e10c0
1.0
  20.000000   0.000000   0.000000
  0.000000   20.000000   0.000000
  0.000000   0.000000   20.000000
      Si       N      Ni       P       H       S       B
       6       2       1       1      16       1       1
Cartesian
  12.82844002  10.76781018  9.71497864
  12.28994610  10.50012078  7.85478723
  8.50423768  10.77966313  9.71904358
  6.80928483  9.74075460  10.17891282
  10.62793802  10.69471122  9.79233096
  10.66526631  12.81337081  9.73877230
  10.70842988  8.45247720  9.79377184
  12.16642077  9.10480365  11.15912240
  12.24333929  8.26892656  12.42509895
  13.48303368  8.93228558  10.73630170
  5.57815404  8.23875156  11.53937560
  7.59435794  8.90852670  11.41748085
  5.95791356  8.62193547  10.18015696
  10.75366184  10.45038229  9.80057417
  9.56025013  11.58806767  11.14911624
  9.56282437  10.17213930  10.50625029
  13.87978595  9.92704083  9.17661114
  10.86700667  10.44838983  7.73142312
  6.41459447  8.71610038  9.29273468
  10.84047063  11.53555161  10.34919098
  9.89964893  14.30310412  9.56180713
  9.22423719  13.30891343  9.92323317
  9.94218534  8.47040312  8.31059143
  9.27192044  8.11052745  10.12295438
  11.22733455  6.99835278  9.67170095
  10.59768338  10.18413388  8.50742249
  9.48455366  9.76196331  10.31707532
  9.01708032  10.20079259  11.32918070