Metallosilicon amino acid: MSA-42127e19
1.0
  20.000000   0.000000   0.000000
  0.000000   20.000000   0.000000
  0.000000   0.000000   20.000000
      Si       B       N      Ni       H       F
       6       2       2       1      17       1
Cartesian
  12.11994002  9.94081829  9.78941923
  13.02457574  10.89439192  8.10468135
  7.76148518  9.98557746  9.69319192
  7.97472434  11.81393924  9.46818146
  9.88460216  9.89699905  9.71868316
  9.91541496  12.10027077  9.72049882
  10.02352780  7.76764994  9.65692973
  12.69197651  8.29117595  10.44681277
  10.45953792  9.22928982  10.42966611
  12.02480036  7.35930149  11.38723379
  9.32418408  13.39462815  9.40376156
  10.60535926  13.17896062  10.17434135
  10.77847975  13.18104274  9.68210485
  7.78019761  8.61855490  11.63282694
  7.72256115  7.00701987  11.32402823
  12.01156601  8.63416585  10.42187262
  13.24973114  9.47717394  8.63560248
  8.26384002  12.44834458  10.80115268
  11.11178537  13.00535644  10.36836943
  9.56433152  13.35348688  8.91793022
  9.00441757  12.11907257  8.52104825
  8.54983028  7.38464056  9.23171768
  11.30131707  7.22898343  10.23760983
  9.05764501  8.46457208  10.61184982
  9.62305757  10.46148004  10.10813060
  10.40735632  10.27184549  9.27233940
  11.87114270  9.41267160  9.86010309
  6.58103035  7.88988591  11.02208015
  7.31158222  7.18870042  11.35783248