Metallosilicon amino acid: MSA-1ff36abd
1.0
  20.000000   0.000000   0.000000
  0.000000   20.000000   0.000000
  0.000000   0.000000   20.000000
      Si       P       N      Mo       S       H       F
       6       2       1       1       3      16       1
Cartesian
  12.69568431  9.96710732  9.51243148
  13.30511403  11.36854055  10.95853307
  7.78613559  9.86082793  9.52787641
  9.28862852  11.18129953  9.30790230
  10.27942113  9.88058212  9.48750654
  10.28361610  12.37747763  9.56220887
  10.17663989  7.53217174  9.44667810
  10.25481920  9.95090848  11.71234485
  10.26917998  9.98657192  7.16874659
  11.88609011  9.94813797  11.53696541
  10.77892449  9.42774795  12.37790907
  11.07925876  10.48108541  12.71374112
  9.29245678  13.29435619  9.74309948
  10.38653012  11.66225833  9.12365034
  10.02390460  12.57155612  8.78906454
  6.51979200  8.68268848  10.77237547
  6.86634252  6.87364351  10.55453115
  13.41713998  8.97125134  10.38846540
  14.45261133  11.05190002  10.10612563
  10.01216466  9.79873610  9.36745680
  9.54332088  11.04593558  9.80360300
  9.04507755  11.45663386  9.35600328
  9.45645113  13.63680697  9.28636079
  11.65879449  6.94656919  9.23290419
  9.09074576  7.68292247  10.52065312
  9.74922128  8.07141461  8.16466515
  9.20599731  9.53987127  10.74996347
  10.43688796  11.06488431  8.15313022
  7.08089713  8.41484646  12.13277905
  5.67815243  7.27126663  10.44232510