Metallosilicon amino acid: MSA-11004be1
1.0
  20.000000   0.000000   0.000000
  0.000000   20.000000   0.000000
  0.000000   0.000000   20.000000
      Si       N      Mo       S       P       H       F
       5       2       1       3       1      16       1
Cartesian
  13.16096248  9.93194340  9.98969043
  12.13300883  8.87499414  8.71755519
  8.21090829  9.97634233  10.05114856
  7.07529355  10.02227762  11.63576320
  10.65114828  9.95547073  10.04495945
  10.73146762  12.44351066  9.96793017
  10.71279922  7.46301798  9.99395288
  10.62673857  9.95993774  12.31355769
  10.77939661  10.02714288  7.69487529
  11.75932106  10.63977519  8.35955244
  13.05958432  9.87515167  8.07500074
  11.92637882  11.52539143  9.53836336
  7.52106033  10.63566561  9.55579781
  6.44441150  9.38955506  9.80831445
  5.90622965  9.43053085  9.85253623
  6.77633071  9.84267858  11.28441431
  13.75726332  11.14423708  9.37655248
  12.70294232  9.63193224  7.43752872
  8.52954969  10.32545913  11.36058782
  11.98396552  12.29248936  10.86891804
  11.12619143  11.96741349  11.37653611
  10.56967611  13.93058140  9.90575293
  10.29180594  8.33773589  11.30206759
  10.51595616  6.35839567  10.98040083
  10.02749657  8.33918106  10.85981723
  10.76208785  8.51754969  12.54212137
  10.54906285  9.53927557  9.14909187
  4.78716461  9.31099753  8.76413295
  6.92179781  10.31136600  9.19307987