Metallosilicon amino acid: MSA-0e404da3
1.0
  20.000000   0.000000   0.000000
  0.000000   20.000000   0.000000
  0.000000   0.000000   20.000000
      Si       P       N      Fe       H       B       F
       6       1       2       1      17       1       1
Cartesian
  12.66240665  10.17297516  9.34587448
  12.08827613  10.09743366  7.26317708
  8.34785122  10.21454731  9.25827963
  8.25105835  9.20302945  11.00370246
  10.50886032  10.25968873  9.34879807
  10.47853901  12.43923671  9.37447217
  10.50673378  8.02233807  9.35892803
  11.23432574  8.98657694  9.90580439
  10.87008588  11.30934383  10.78813184
  11.62973625  7.72614883  9.57231059
  10.02519011  10.09884500  10.92595043
  11.05923654  10.76341080  9.90567465
  9.40336428  9.61099198  12.12863104
  6.80847032  8.54093816  9.87809842
  7.42980805  9.69526408  10.89667819
  12.30268453  10.17589199  10.69555269
  10.62345910  10.33132935  7.55556222
  9.04626353  9.78851959  12.04279753
  10.02171544  12.10421767  7.91680940
  11.11248732  13.09610228  10.47610524
  11.47698795  11.30084535  9.52731416
  9.40907036  9.04973908  9.44721324
  9.75156600  6.92266303  8.63294626
  9.58876997  9.23430927  9.32700945
  12.08898932  11.13570394  11.58388610
  11.78403033  11.85028489  11.66954025
  9.74520625  12.37307776  11.05353873
  5.75759661  8.16953680  10.87101836
  5.98723066  7.32701030  10.24619491