Metallosilicon amino acid: MSA-ac454263
1.0
  20.000000   0.000000   0.000000
  0.000000   20.000000   0.000000
  0.000000   0.000000   20.000000
      Si       N       S       H       B
       6       3       1      16       1
Cartesian
  10.00000000  10.00000000  -12.62000000
  10.00000000  10.00000000  -10.88000000
  10.00000000  10.00000000  -9.14000000
  10.00000000  10.00000000  -7.40000000
  10.00000000  10.00000000  -5.66000000
  10.00000000  10.00000000  -3.92000000
  10.00000000  10.00000000  -2.18000000
  10.00000000  10.00000000  -0.44000000
  10.00000000  10.00000000  1.30000000
  10.00000000  10.00000000  3.04000000
  10.00000000  10.00000000  4.78000000
  10.00000000  10.00000000  6.52000000
  10.00000000  10.00000000  8.26000000
  10.00000000  10.00000000  10.00000000
  10.00000000  10.00000000  11.74000000
  10.00000000  10.00000000  13.48000000
  10.00000000  10.00000000  15.22000000
  10.00000000  10.00000000  16.96000000
  10.00000000  10.00000000  18.70000000
  10.00000000  10.00000000  20.44000000
  10.00000000  10.00000000  22.18000000
  10.00000000  10.00000000  23.92000000
  10.00000000  10.00000000  25.66000000
  10.00000000  10.00000000  27.40000000
  10.00000000  10.00000000  29.14000000
  10.00000000  10.00000000  30.88000000
  10.00000000  10.00000000  32.62000000