Metallosilicon amino acid: MSA-9f05a3f0
1.0
  20.000000   0.000000   0.000000
  0.000000   20.000000   0.000000
  0.000000   0.000000   20.000000
      Si       N      Mo       S       P       H       F
       6       2       1       3       1      16       1
Cartesian
  13.05750933  9.63931586  10.39721257
  14.02998853  11.20066317  10.33143289
  8.20904011  9.56344251  10.36717992
  6.58834635  10.30511833  9.68788476
  10.67397474  9.51043596  10.30490716
  10.66291768  12.08991205  10.34274879
  10.65858458  7.13748648  10.34305191
  10.63127167  9.53973591  12.59837714
  10.74694031  9.52731263  8.07798256
  11.98621338  8.70777016  8.65904699
  10.98128463  9.83566764  8.57292200
  12.33324387  9.86623584  9.54929405
  5.84249856  8.02685183  9.76894757
  5.01630630  8.46767493  11.73202346
  5.86825429  9.66154888  9.59844565
  9.68031099  10.87361598  9.13492337
  9.09539558  9.30272715  8.78709508
  12.10535249  10.29199100  9.61077497
  13.28726814  12.48362229  10.70439176
  7.43633621  11.43122260  10.04176272
  10.05911843  12.59647303  11.60534180
  9.68220013  12.90225239  11.01318778
  10.66872467  13.15692894  11.36122661
  9.95827486  6.61687391  9.02114111
  10.93565882  6.28849214  9.12946613
  11.31033122  8.52034099  10.55130912
  9.57859319  8.61585893  12.65538385
  11.50963100  10.72748491  8.01056429
  8.53975259  11.38319240  9.79544664
  8.86667736  11.72975117  8.24652735