Metallosilicon amino acid: MSA-40ce787a
1.0
  20.000000   0.000000   0.000000
  0.000000   20.000000   0.000000
  0.000000   0.000000   20.000000
      Si       N      Ni      Al       H       B       F
       5       3       1       1      16       1       1
Cartesian
  11.51594357  10.99174258  12.09655515
  12.53429751  12.06354062  10.97755562
  11.45209349  8.26823846  9.30905651
  10.86542172  9.44020684  8.04447500
  10.12177949  9.53898366  10.85645243
  8.79309429  10.91380291  9.36414782
  8.86031274  8.18747191  12.11089967
  9.46024423  10.10919797  11.36349561
  10.17650505  11.82930804  10.92834922
  8.95011865  11.45741708  11.83414369
  10.93011835  10.16708151  9.98247530
  11.32856042  10.03561610  8.49709014
  9.56797197  9.71633696  10.59099885
  10.33706665  8.79961136  7.41973994
  8.87977920  7.99771631  7.61023301
  11.21377361  12.37725144  11.84263915
  14.05796577  12.42146172  10.63074844
  10.90930018  8.67630660  6.84242459
  7.72131354  10.44262310  8.57426527
  7.40249854  11.12999318  9.53834189
  8.21539638  9.56892315  9.14142960
  7.79928746  8.68579735  11.06243478
  8.62555183  8.97277205  13.36276051
  8.96771624  7.21155417  11.02344286
  10.14720473  10.72441823  10.23494926
  10.37086346  10.27033004  10.85366379
  11.05371055  9.87614346  8.21321970
  9.74211038  10.12615318  7.69401220