Metallosilicon amino acid: MSA-ab749bff
1.0
  20.000000   0.000000   0.000000
  0.000000   20.000000   0.000000
  0.000000   0.000000   20.000000
      Si       N      Fe       H       S       F
       7       3       1      16       1       1
Cartesian
  10.26025873  11.87640653  11.59980177
  10.25225101  13.69304825  12.04223415
  10.17946381  9.20377306  8.83706690
  12.22548127  9.18152690  9.17703501
  8.90867308  10.42849002  10.15350705
  7.56791820  11.89985766  8.87888039
  7.54193845  9.19678571  11.44770446
  11.73879502  10.81871102  11.56691831
  11.70803269  8.41504800  11.43463819
  12.30668947  12.09594349  11.05965122
  10.42298949  10.04341111  7.80462904
  11.95589896  9.42212942  9.17239877
  11.15588639  9.26583937  6.62035295
  10.33508781  8.30171885  6.73083205
  11.45424119  7.19326004  6.21069305
  10.28153446  10.65165910  12.46280504
  10.39337062  13.37147236  13.49947927
  10.84635912  8.41844502  9.00376057
  7.11644671  10.99509475  10.05547909
  7.42880544  11.37817843  10.19277018
  6.27907933  11.01776731  8.91060827
  8.83076998  9.83807642  11.82401465
  7.84271113  10.54921272  12.16546091
  6.50386986  9.22505513  10.34411356
  12.23117414  7.02423110  11.44166382
  12.32807553  9.59325208  10.42110132
  10.74335057  7.64586642  12.22177267
  10.25291912  9.68942012  7.48792874
  10.90792841  9.56631962  7.23269861