Metallosilicon amino acid: MSA-86682626
1.0
  20.000000   0.000000   0.000000
  0.000000   20.000000   0.000000
  0.000000   0.000000   20.000000
      Si       N      Fe       H       C       S       F
       6       3       1      16       1       2       1
Cartesian
  12.15138413  10.64863091  9.96061003
  13.19105533  10.09578792  11.42085579
  7.85477195  10.52214527  9.94954291
  7.09368956  9.25585957  11.13415562
  9.97089934  10.49980499  10.04056905
  9.97394966  12.79414541  10.00238810
  10.01327899  8.34426524  10.02527847
  12.26502175  8.69609378  9.82512111
  13.98330836  10.29694489  9.60515797
  13.19907206  9.71534945  9.81607950
  8.20309942  9.26734719  12.65045434
  9.50365758  8.22860093  13.89270018
  7.19840140  8.86884985  10.69134431
  8.27835872  9.26561318  9.83095355
  6.14223660  9.48891581  8.87409066
  5.75188509  9.65354866  7.13249740
  12.23596733  9.09448301  9.98542832
  12.94038969  10.84667167  12.68385691
  6.94527302  8.59019973  9.76664847
  10.01736919  14.11960884  9.03525763
  9.49322286  13.03290272  8.55914020
  9.56082745  13.72934411  8.86129876
  9.11319041  7.22502664  9.70320054
  10.28185182  8.80801542  11.37504260
  8.71751882  8.25365331  9.25270825
  13.75044133  10.28918043  8.07879163
  14.15017868  10.40470997  11.10309730
  15.38208077  10.71825908  9.57142625
  5.79247930  8.74526938  7.53943315
  6.84513938  10.50077264  9.63287100