Metallosilicon amino acid: MSA-c55119e0
1.0
  20.000000   0.000000   0.000000
  0.000000   20.000000   0.000000
  0.000000   0.000000   20.000000
      Si       P       N      Fe      Al       H       S       F
       6       1       2       1       1      15       1       1
Cartesian
  10.11323152  11.18567108  11.40238348
  11.45529912  9.60431434  10.26876247
  10.09264987  8.41005263  8.58295074
  10.12370158  6.89440065  9.81155286
  8.79054092  9.86566909  10.01683541
  7.44581183  11.14889216  8.68626586
  7.40502227  8.33522987  11.42284702
  11.68944802  12.61646396  10.56180544
  12.36580862  14.32620467  10.84384353
  13.78797319  14.32185609  11.23845191
  12.31377191  7.25285364  10.23877629
  11.62113429  5.42874054  11.18187713
  12.28786074  5.74993165  10.68924540
  10.78242310  10.70417736  9.07106431
  10.40250457  9.50234221  7.79999444
  9.45969006  10.48712190  10.03874997
  11.49272492  11.15773767  10.57726054
  8.84341084  6.15608330  10.15072103
  7.45342285  11.29793846  7.15218377
  6.29600319  10.19914179  8.31137568
  6.65089640  12.27085253  8.07289728
  7.83637947  9.04627714  12.62570198
  7.93797901  8.24419384  12.68752680
  6.28438727  7.56912176  11.55208383
  12.49654181  11.72467690  9.76953497
  12.93242278  15.07722005  9.58851064
  9.57608232  10.02388284  8.40208237
  12.06287753  11.39895190  9.25471485