Metallosilicon amino acid: MSA-0446b381
1.0
  20.000000   0.000000   0.000000
  0.000000   20.000000   0.000000
  0.000000   0.000000   20.000000
      Si       S       N      Ni       H       C       F
       6       3       2       1      15       1       1
Cartesian
  12.26366597  10.09674634  10.26442259
  11.79838543  10.99570043  8.42501106
  7.79681475  10.04303914  10.29209330
  9.56956233  9.94819506  9.46914984
  10.11040600  10.03935574  10.15672636
  10.11777904  12.27187069  10.19442949
  10.06292369  7.94063471  10.13915972
  10.70957475  9.12381025  10.70855560
  12.24591898  7.88578126  9.57109706
  10.23318705  10.44698164  11.31945423
  9.75806981  11.42306932  8.13379240
  8.42650044  11.73302852  9.87477554
  8.25591305  12.96977162  8.27940651
  7.37715674  14.08747502  8.46445045
  8.18589651  8.72297748  12.13627528
  9.00766346  9.04567560  10.67941663
  11.29621218  8.90368994  10.11475765
  8.52896385  10.36377211  8.36059247
  11.55322173  12.37215171  10.71538887
  11.57318121  11.94197252  10.68493151
  9.86299501  12.06265375  8.76824230
  11.37431077  8.01880707  10.96184695
  8.82206297  7.65186035  10.95652634
  9.99660137  9.24349289  10.45825006
  12.69254817  7.09541748  10.77278419
  11.21267999  8.44492761  8.54963008
  13.08312303  8.01404626  8.26573948
  7.07976101  9.50401122  11.55423562
  7.00492071  9.60908428  11.72885841