Metallosilicon amino acid: MSA-ed928381
1.0
  20.000000   0.000000   0.000000
  0.000000   20.000000   0.000000
  0.000000   0.000000   20.000000
      Si       P       N      Ni       H       S       F
       6       2       1       1      14       1       1
Cartesian
  11.24567241  11.04163572  10.78718079
  12.14274653  9.36478979  9.79085425
  11.22148178  8.52669317  8.13030179
  11.99077762  9.13367460  9.84796126
  9.89329643  9.80037548  9.53305470
  8.58980992  11.09159433  8.06781709
  8.56898231  8.51685230  10.86220350
  10.52198999  13.29067138  11.06504521
  9.78379473  13.96079441  12.08392530
  10.82065085  12.32166204  12.17930521
  10.12690107  8.26290131  11.09503561
  9.07644877  6.65676483  10.41034883
  11.29252038  8.21132326  10.09589511
  9.61884889  9.55754765  9.31219790
  10.17520194  9.29560038  7.83070077
  12.49293014  11.89205387  10.54811755
  11.98900652  10.67975785  10.49237609
  10.64765748  8.33468444  9.82123892
  9.18971516  12.33089607  8.79999471
  7.34729593  11.81285771  7.74562724
  8.36244296  10.87157917  9.55038761
  9.72947298  8.98110798  11.65699482
  7.48639304  9.37498326  10.87153167
  8.92861103  9.10361542  9.49016651
  8.37143890  8.76955891  9.81531478
  10.38591225  8.81602468  10.11642278