Metallosilicon amino acid: MSA-ae7a207c
1.0
  20.000000   0.000000   0.000000
  0.000000   20.000000   0.000000
  0.000000   0.000000   20.000000
      Si       N      Ni       P       H       C       S       F
       5       2       1       1      14       1       2       1
Cartesian
  10.87834876  11.20734682  11.61925582
  9.46050418  11.35707399  10.24218400
  10.90298976  8.58031630  8.87873487
  9.12067508  8.84253670  9.41953553
  9.62180948  9.88921236  10.23671862
  8.16103378  11.13129531  8.85639093
  8.27160972  8.58832640  11.54528232
  12.78187386  10.59304516  10.49108088
  12.05640784  10.04759526  11.64641222
  11.91868005  11.64665432  9.71686239
  9.98607931  10.22410049  8.63335943
  11.80712543  9.44405543  8.37893862
  8.75385358  9.81382431  7.03735393
  9.23140953  8.43285128  6.79893136
  11.72880843  8.98356375  11.01821381
  12.04132394  8.01425689  12.38478099
  10.48443135  11.94650139  12.76911610
  8.05523856  12.02289828  10.58373066
  9.70767865  8.69765905  8.01643044
  9.20973072  11.25112161  7.81465264
  8.26851040  10.28753240  7.81008491
  7.67496497  11.12692765  7.58085527
  9.34848667  8.41580908  12.53668230
  7.85829453  9.87408121  10.91145456
  9.01000256  9.87722197  11.46759462
  11.88248252  10.40958751  11.08278208
  11.77764633  9.29460507  12.52258070