Metallosilicon amino acid: MSA-96d2588b
1.0
  20.000000   0.000000   0.000000
  0.000000   20.000000   0.000000
  0.000000   0.000000   20.000000
      Si       N      Fe       P       H       B       F
       5       2       1       1      15       1       1
Cartesian
  11.64409781  11.56677381  11.58129782
  11.93728365  12.52798510  10.15085111
  11.63418583  8.95462941  8.89448736
  10.28022908  7.80216654  9.61545943
  10.27161632  10.23605776  10.22217379
  8.90092246  11.51842954  8.90000927
  8.92626443  8.84183064  11.56943753
  11.08752859  9.95653951  12.97057478
  11.10190867  10.09632323  11.67087169
  12.22663998  9.25458563  13.80435274
  9.75953521  9.75916345  10.00311110
  9.66857467  8.81972928  8.79978485
  8.96046662  9.45759786  11.17488776
  9.45910125  8.31883161  8.21682810
  8.12187754  9.20060754  7.65711939
  11.47270001  12.80585508  12.55307659
  11.97989644  12.43510944  8.53683840
  10.97952610  8.70808564  8.80026371
  10.38098188  11.75929253  8.67148845
  8.14543583  12.70210310  8.30894792
  8.81108526  11.03152307  7.53526515
  7.67922752  8.19105385  11.20476643
  8.38266830  8.68267918  10.23215734
  10.18663057  9.72308479  11.48701996
  9.15652028  9.78178329  7.88998203
  8.84509572  7.86817912  9.54894732