Metallosilicon amino acid: MSA-51f5ffd6
1.0
  20.000000   0.000000   0.000000
  0.000000   20.000000   0.000000
  0.000000   0.000000   20.000000
      Si       N      Ni       H       S       F
       6       3       1      16       1       1
Cartesian
  12.00442562  9.81411218  9.92298196
  13.56106655  9.15124493  9.03782248
  7.58386674  9.75208656  9.96853379
  8.76734998  8.87358018  8.75044438
  9.65740297  9.73079911  9.92428559
  9.73720112  11.95108641  9.99165184
  9.82993682  7.46389914  9.96268777
  10.87871142  8.64272664  8.75922331
  11.34960154  10.63397631  10.01783789
  9.86034973  8.86041424  10.06357558
  9.53432697  10.42109918  10.14054517
  7.98696347  10.78472465  10.16683383
  8.06780927  10.50062269  12.09549064
  7.66285975  12.11399388  11.97070369
  10.87789593  8.79847339  10.07740315
  13.36513433  10.33103182  8.05229162
  8.07112237  9.93104590  9.47152567
  10.58999721  11.02588168  8.83508138
  10.31155070  12.40298276  11.25020167
  10.25312731  11.30422294  11.18060631
  9.07477219  8.88469566  10.09507964
  8.92076989  6.39134352  10.20279214
  9.73675727  7.33565157  8.37990525
  12.17097867  11.73544954  10.66032317
  12.12713960  11.81308267  10.46218398
  11.93366176  11.50848666  8.96147676
  7.84660700  9.52612493  10.98645585
  8.23861383  10.31716084  10.61205551