Metallosilicon amino acid: MSA-f3db7801
1.0
  20.000000   0.000000   0.000000
  0.000000   20.000000   0.000000
  0.000000   0.000000   20.000000
      Al       N      Si      Fe       P       H       S       F
       1       2       5       1       1      13       1       1
Cartesian
  11.32057782  11.10283228  11.79395665
  12.91881937  10.89096815  10.84818115
  11.33313188  8.41332602  9.29198068
  9.73244194  9.23397502  9.60317343
  9.95970279  9.75984498  10.49358892
  8.59057163  11.07811124  9.13735083
  8.75570106  8.37939407  11.79510879
  9.30497258  11.36100608  11.14824775
  8.33625320  10.87126655  12.15065013
  7.95573996  11.62283816  10.34585019
  8.96786858  11.25981060  8.48949022
  9.86416976  12.43701881  9.90009881
  9.24107545  10.76794139  9.80990395
  12.45260775  9.08041922  7.20905879
  11.31557345  8.48468870  8.27161794
  12.81017837  11.03463316  12.38770295
  10.06034002  8.11748003  8.59542715
  9.75068278  11.97851116  8.63458884
  8.16753755  11.54184146  7.90493958
  8.39202179  12.35714623  9.82654754
  7.84352301  9.64273888  12.14586302
  9.38481662  7.06433348  11.73411042
  8.08150381  7.03847045  11.59238492
  12.42619686  8.05394786  8.30203843
  13.03399197  8.42745604  8.58813889