Metallosilicon amino acid: MSA-dce0413b
1.0
  20.000000   0.000000   0.000000
  0.000000   20.000000   0.000000
  0.000000   0.000000   20.000000
      Si       N      Ti       S       P       H       F
       6       2       1       3       1      16       1
Cartesian
  13.17655278  10.25718242  10.17678449
  13.65070386  11.55115973  11.49800462
  8.22457063  10.16506813  10.18388343
  7.62777167  9.81376286  8.37829715
  10.67104053  10.26239716  10.12517561
  10.71151803  12.71789611  10.18040408
  10.77456908  7.91243471  10.19717878
  10.71041705  10.35843132  12.49551533
  10.72162265  10.22130586  7.87412531
  11.67113101  11.26558368  11.60329853
  11.42340522  9.77468233  11.69647297
  10.77067111  10.46915032  10.58847696
  5.46857129  9.62338386  9.27104505
  6.39414672  8.78159096  11.07679329
  6.43582538  10.61240438  8.69976261
  7.62086943  7.98858264  9.63353972
  7.28975808  9.71983230  9.81967566
  11.70591964  10.69984937  9.83217366
  13.45076827  10.17020800  10.74827145
  7.30729310  9.85101336  6.97724674
  9.28763893  13.17110746  10.44952850
  11.99591432  12.01694919  10.20573068
  9.59618835  12.04285235  10.90416234
  11.45046730  7.92824289  8.83528140
  11.81627648  8.47197914  10.99335121
  11.73458751  8.40272131  10.99557627
  10.42406859  9.42435090  11.27565851
  12.00488364  9.50041471  7.74948278
  8.74208912  7.58102641  8.77532847
  7.14076023  9.24443617  8.75977441