Metallosilicon amino acid: MSA-10919e9c
1.0
  20.000000   0.000000   0.000000
  0.000000   20.000000   0.000000
  0.000000   0.000000   20.000000
      Si       N      Ni       P       H       S       F
       6       2       1       1      14       1       1
Cartesian
  10.57833948  11.58810889  11.33889336
  10.45533848  12.84705867  12.69384772
  10.53169780  8.93321708  8.68267905
  9.33894546  9.74460737  10.00238657
  9.15668648  10.26926260  9.94175281
  7.96688645  11.53662003  8.73013543
  7.89439466  8.90110286  11.44059626
  11.73266802  13.15002633  10.25074737
  12.52216151  12.82726235  11.36535773
  10.39580721  13.87684373  10.12608226
  8.30311572  7.56496109  10.44091170
  8.42143372  5.87353105  9.16303979
  8.69343897  6.39065634  9.63531949
  12.54931257  7.95562265  8.09295883
  13.33363548  7.99693846  9.64369431
  11.69677686  11.08446738  12.19138654
  9.15934175  13.79203150  12.79716837
  10.65404984  9.72238099  10.77040297
  9.26820627  11.16254764  8.38220743
  9.41514888  11.54097275  8.67009737
  9.19399294  11.13092229  8.22856716
  8.18724637  9.02147263  9.90963431
  9.46706752  8.98324216  11.51240549
  7.83887588  7.83126046  10.47759476
  11.27195480  7.98265103  8.74811807
  11.97347689  8.29223167  6.76401484