Metallosilicon amino acid: MSA-df143459
1.0
  20.000000   0.000000   0.000000
  0.000000   20.000000   0.000000
  0.000000   0.000000   20.000000
      Si       P       N      Ni       H       S       F
       7       1       2       1      16       1       1
Cartesian
  10.61303248  10.70967641  11.62210852
  10.44613949  11.26839450  9.46535509
  10.46934166  8.01305660  8.89842992
  11.17479247  9.44622891  7.78412004
  9.12506335  9.36973988  10.34727471
  7.86967450  10.72050635  8.98468995
  7.84613985  7.96525778  11.62342578
  11.32948454  10.88979631  13.39886264
  11.05148063  12.21714988  11.41191103
  10.73503418  10.97317280  11.98718786
  10.01783307  11.14898896  8.87325573
  8.70373841  9.39931484  9.15205785
  9.80078855  10.03823100  9.97832150
  12.70502515  8.52131866  8.13224836
  14.06254882  8.62000123  9.09786681
  9.11788802  10.28881642  11.79683886
  11.60167218  12.21314143  9.12135158
  9.92756140  10.07147961  8.35026259
  8.12727725  10.28547517  7.41918683
  7.34810440  9.16030705  9.03055918
  7.32749265  9.66978562  9.85249926
  6.35569391  7.84105676  11.25759893
  7.14072997  7.60982908  10.39273909
  6.74834700  8.73193706  10.91276738
  11.97509722  13.47516184  11.06608738
  11.27317726  12.84551412  9.98217003
  11.98947691  13.25565999  11.94076323
  13.30866225  7.73512424  9.25773291
  11.80870241  7.51587752  8.86232695