Metallosilicon amino acid: MSA-d40428e7
1.0
  20.000000   0.000000   0.000000
  0.000000   20.000000   0.000000
  0.000000   0.000000   20.000000
      Si       B       N      Fe       H       C       S       F
       6       1       2       1      16       1       2       1
Cartesian
  10.44971269  11.97948426  11.40996269
  10.96516596  10.37823493  12.18770976
  10.38738633  9.35496415  8.72633063
  11.86610765  9.98347126  7.70282196
  9.13318452  10.64247996  9.99082128
  7.78199659  12.00320669  8.68556600
  7.79557581  9.39652174  11.24711154
  10.88771472  11.40379844  13.11449273
  12.74433565  12.26052951  12.21371594
  11.39896772  10.35339463  14.09514624
  11.17955658  9.16583365  9.16135068
  10.40179792  7.11489827  8.87244162
  9.15101691  8.36337107  9.53723955
  10.50762003  8.48567847  10.27672408
  9.67362413  7.23412960  7.67672671
  10.99219868  7.44194916  8.73386393
  9.24302492  11.25141762  11.94063688
  9.64599284  9.81104671  12.27462030
  11.42361125  11.37516552  7.36591190
  7.33732995  12.71846406  7.42014860
  8.91782242  11.92688604  7.64501124
  8.74824115  11.74730989  7.60846781
  9.27969303  8.97198142  10.87959296
  8.80945827  9.84609353  12.27741599
  7.14906378  9.50918063  10.03919641
  11.34234381  11.85810338  12.23415749
  12.10567038  11.45256597  11.13898780
  12.84558698  10.97386706  11.90714949
  8.97061424  6.13879064  7.05534144
  8.86558510  6.85718178  6.58133637