Metallosilicon amino acid: MSA-6c5105c0
1.0
  20.000000   0.000000   0.000000
  0.000000   20.000000   0.000000
  0.000000   0.000000   20.000000
      Si       P       N      Ni       H       B       F
       6       1       2       1      17       1       1
Cartesian
  11.34813996  11.41298826  11.37045515
  10.21577718  9.41104716  11.64344768
  11.37684112  8.66962738  8.72169652
  11.79695210  10.44196208  8.80109362
  10.14648762  10.00722775  10.13934613
  8.80390954  11.27052722  8.78379726
  8.85518941  8.60537989  11.45143869
  11.98848580  12.00409090  9.79733181
  9.75757074  11.49906789  10.08874311
  13.38237727  12.00385387  10.34014938
  10.01525686  9.62921297  8.47454177
  9.72048231  9.38053784  9.82890200
  8.45929723  10.18776619  8.24751027
  9.97394156  8.38167101  10.52411813
  8.41281903  9.20627572  10.82507445
  11.02110073  12.20472981  10.20180873
  10.89604045  8.47005816  12.65325084
  11.99848260  9.13600790  8.31594826
  8.86346301  9.76956621  9.16317944
  10.26372952  11.00131222  8.46915888
  8.30021684  12.69024893  8.42957782
  7.63166736  9.47195554  11.81720032
  9.65409288  8.23760561  10.23878668
  7.93346627  7.37463099  11.54718548
  9.32607706  12.97791055  9.73057322
  9.26827929  10.20935607  9.74161209
  10.64735438  11.35049498  11.30957816
  9.16388117  7.50277966  9.73227378
  10.77862072  7.49210723  9.61222035