Metallosilicon amino acid: MSA-eb529456
1.0
  20.000000   0.000000   0.000000
  0.000000   20.000000   0.000000
  0.000000   0.000000   20.000000
      Al       N      Si      Fe       H       S       F
       2       3       5       1      14       1       1
Cartesian
  11.30400181  11.81998172  11.76280555
  11.21046189  11.79870633  9.88103547
  11.16720670  9.04664978  9.11342291
  11.70743317  7.49283070  8.10132295
  9.80465892  10.32320830  10.47044863
  8.63634153  11.66602290  9.05192386
  8.61766736  9.04499666  11.74945784
  10.65702449  10.05459729  10.25647071
  11.69487458  10.92642751  11.38894773
  11.92010462  11.50591089  12.86934045
  9.56825867  6.64002544  8.62937433
  10.50709963  6.79260182  10.73826309
  10.97672598  6.62469801  8.20107371
  9.98293654  10.97818788  9.11602120
  8.30261890  10.73212219  9.37634824
  11.74114668  12.21447401  8.54168170
  11.02213565  6.36769601  8.56816499
  7.28138905  12.31384699  8.73261432
  9.79955954  11.71709466  8.34996026
  7.57481650  11.03541149  9.99571369
  7.70082877  10.21083970  12.17230149
  10.00479843  9.45798388  11.65087734
  7.73239341  9.15772949  13.04879524
  9.91254272  9.80146887  8.87278165
  12.34200917  10.08033502  12.53579344
  9.57403089  12.29509732  8.52281832
  9.25693440  9.90105514  8.30224088