Metallosilicon amino acid: MSA-aeb9e872
1.0
  20.000000   0.000000   0.000000
  0.000000   20.000000   0.000000
  0.000000   0.000000   20.000000
      Si       N      Ni       H       C       S       F
       6       3       1      16       1       2       1
Cartesian
  13.03507374  9.32699325  9.63934351
  12.00955621  9.25678480  11.38427106
  8.63525485  9.37777391  9.59815128
  8.17271380  11.06043842  9.33772856
  10.80098644  9.30388448  9.66244139
  10.81574461  11.49658195  9.61033291
  10.95893274  7.09850143  9.75436836
  11.82475090  10.58066252  9.71342482
  9.46664998  9.85484767  9.55671829
  10.40444899  10.01396686  9.38739303
  7.60891801  12.82414360  9.03340265
  9.18659127  14.20713008  9.16987978
  6.59988293  14.08285487  10.46708271
  6.55716263  15.44025471  10.42036387
  10.22052708  8.26215813  11.11514964
  11.85823254  7.61537755  10.72552890
  12.82518139  7.85953692  9.03468761
  10.95028388  10.21985047  11.11984926
  7.45938287  11.98278106  8.44839132
  9.86407200  10.67950409  10.39957253
  9.92753977  12.75620588  9.54451832
  11.02011946  11.65112316  11.22031520
  9.99741207  5.83493741  9.88933929
  10.63870050  6.43806220  11.05751922
  10.63621838  6.45428718  11.13420515
  9.89830448  10.58597573  10.76043659
  8.35113300  9.99133150  8.49330937
  9.68671749  8.99542912  8.43074323
  9.90447028  9.15404163  12.23211814
  10.68503768  7.59457944  9.65941400