Metallosilicon amino acid: MSA-500912b8
1.0
  20.000000   0.000000   0.000000
  0.000000   20.000000   0.000000
  0.000000   0.000000   20.000000
      Si       B       N      Fe      Al       H       S       F
       6       1       2       1       1      15       1       1
Cartesian
  12.01795758  10.16394373  9.88599892
  10.77525859  9.57856665  11.37438102
  7.68188238  10.07513155  9.90812582
  9.09160669  10.80699800  10.97884135
  9.90176164  10.14003310  9.89036194
  9.81104049  12.28432818  9.87331365
  9.88345847  7.87561302  9.90259199
  12.16796328  7.82562264  9.58783729
  11.61887424  6.71286051  11.05871197
  11.10537816  7.69366263  12.03625355
  9.04893654  10.54973323  8.63172228
  9.90614393  8.60271105  8.62284919
  8.20863703  9.71912823  9.54404888
  8.42141950  11.89165037  8.62391797
  9.87582476  11.25821937  9.09640235
  13.26371688  10.50530312  10.65334839
  11.62035088  8.57706925  10.69079907
  8.26051489  9.84327228  11.78628827
  10.50589291  13.63821680  10.11335994
  9.44009795  13.51123896  9.14803026
  11.16465057  12.51547509  9.00503072
  10.14895854  9.13841778  10.79959595
  9.87224095  8.16209439  11.38602921
  8.45288925  7.54569354  9.38865754
  11.34899930  8.84913288  8.70058326
  11.62047068  7.22748942  12.32439585
  7.25232761  12.40700489  7.92945679
  7.53274629  12.90138935  9.05906659