Metallosilicon amino acid: MSA-36b55f5a
1.0
  20.000000   0.000000   0.000000
  0.000000   20.000000   0.000000
  0.000000   0.000000   20.000000
      Si       S       N      Ni       P       H       F
       6       2       1       1       1      13       1
Cartesian
  10.97497697  10.93767247  12.31487218
  12.27588872  11.99514170  13.65885967
  10.98937087  8.18892188  9.72004622
  10.89570166  8.79206538  7.83524170
  9.59338874  9.64969630  11.06517230
  8.29442079  10.99864742  9.69910174
  8.25106281  8.24401398  12.31466327
  9.83804146  12.44714632  11.14191941
  10.28983051  11.08331710  10.63015444
  11.34410823  12.65887115  11.08892085
  9.00732602  10.10867365  7.28242191
  7.76955442  11.96904553  7.19164241
  7.56772878  10.30134198  7.81924052
  12.07265379  8.80604758  7.66275839
  11.45310667  7.25581837  7.64009901
  11.65778717  12.15131149  12.15825775
  12.08666886  8.77035832  8.76934950
  8.50701521  9.91738824  8.70963617
  8.83937709  10.73517238  8.29192484
  6.98361506  11.48334766  10.09234923
  7.09640820  7.47419360  13.05244546
  8.74598202  9.61283304  11.91343241
  9.71607830  7.99756704  12.16244345
  12.75863056  9.72700757  8.82764865
  12.99127710  8.69439984  8.95739851