Metallosilicon amino acid: MSA-2142614e
1.0
  20.000000   0.000000   0.000000
  0.000000   20.000000   0.000000
  0.000000   0.000000   20.000000
      Si       P       N      Mo       S       H       B       F
       5       2       1       1       2      17       1       1
Cartesian
  12.21698424  9.70457656  9.95237399
  13.39099490  11.41779204  10.78487573
  7.31738404  9.61752823  10.02409396
  8.02881446  11.34273746  9.27952296
  9.90386810  9.71440784  9.89663698
  9.80286375  12.18008648  9.98777602
  9.82385775  7.25138490  10.02371285
  9.88983675  9.74753062  12.22765638
  9.86314533  9.58509927  7.65579260
  13.87905039  8.62273073  8.89086325
  12.34675617  8.62857949  9.08890589
  14.50360784  7.49015966  8.01396088
  7.34279164  13.03354968  9.79449009
  7.47766274  12.23877604  8.55634250
  8.69214362  13.65141876  10.32007812
  8.18719264  7.95599693  11.41101349
  8.39682995  9.07010618  12.69917241
  11.95103680  10.67587713  11.09386398
  13.74117692  10.64892161  9.47825554
  8.66710617  11.10329355  7.93260053
  11.06368796  12.65089831  9.91501463
  10.29605743  11.20311751  8.95523568
  8.82919814  11.16246136  10.41077009
  10.40862381  8.58211610  9.82665558
  9.77095859  8.36120996  10.95951807
  8.66290388  8.24895548  9.66538622
  8.91610753  10.20091034  11.22306665
  8.63370342  10.42590138  7.13414538
  8.91087239  7.01372757  12.35815732
  9.08478265  8.47014884  12.44006224