Metallosilicon amino acid: MSA-1e897b0c
1.0
  20.000000   0.000000   0.000000
  0.000000   20.000000   0.000000
  0.000000   0.000000   20.000000
      Si       P       N      Fe       H       C       S       F
       6       1       2       1      16       1       2       1
Cartesian
  12.11306369  10.00937357  10.13452157
  12.31520621  12.10474198  9.18016858
  7.65157857  10.06352414  10.09720861
  7.44001626  8.57578111  11.31746984
  9.90893916  10.13048757  10.15088379
  9.83788165  12.27343567  10.16437115
  9.88119155  7.95598609  10.16610381
  12.13870057  11.33434329  8.80353789
  12.66528943  13.61866352  8.06790855
  12.12039444  12.64497837  7.86763645
  7.35671031  7.74536859  13.02003347
  6.47298426  7.28984711  14.86205225
  9.42459793  7.29495541  12.78363726
  8.14091883  6.89079959  13.50026905
  8.50416156  8.29425377  8.90049590
  7.46029429  7.04715512  9.57469056
  12.29038235  11.33061499  9.51312977
  11.87934422  11.01694911  10.13552539
  8.85546713  8.56975595  11.59243604
  9.85277355  12.95063189  8.75333170
  8.54876369  11.66661470  10.47390303
  10.82366290  11.73306578  9.20473522
  10.75445708  7.32488560  11.21822603
  10.89654490  8.33411098  11.11545680
  8.70659859  7.09021760  10.40319790
  13.29835033  12.99455713  9.29130906
  11.71399906  13.46063196  6.92576890
  13.98691333  13.20799025  7.34969354
  7.26934099  8.82778974  7.97260990
  7.69147318  8.21848943  7.45968798