Metallosilicon amino acid: MSA-b535fbda
1.0
  20.000000   0.000000   0.000000
  0.000000   20.000000   0.000000
  0.000000   0.000000   20.000000
      Si       N      Mo       S       P       H       B       F
       5       2       1       2       1      17       1       1
Cartesian
  12.84742529  10.27647912  10.21647358
  12.87954013  8.33429439  10.02717804
  7.88196078  10.26302690  10.25805154
  6.86637230  8.79150180  9.88339413
  10.40111043  10.26184771  10.20645800
  10.31973520  12.65603752  10.22730869
  10.38134263  7.86778430  10.20970434
  10.36068551  10.11442012  12.50354818
  10.40475950  10.22562889  7.85292012
  12.27106048  10.13949795  12.34786418
  12.72731881  8.87899720  11.70414940
  10.91563568  9.62093345  12.80831351
  7.32441966  8.64685345  8.04550766
  6.62760119  9.39568531  6.79135002
  8.80694311  8.69446857  7.55052216
  9.26765024  11.73507550  9.07703321
  10.89840119  11.81234482  9.56568114
  11.98228579  10.80223379  9.13898121
  12.53412329  6.98154073  10.36444461
  7.26507881  10.13655469  9.80785856
  11.42095671  11.76747546  9.57486604
  10.88787134  12.06634518  11.49103297
  9.31557721  12.48383130  9.05387974
  9.18089749  7.68290915  11.08509147
  10.35645978  8.95495600  9.29498430
  9.01987762  8.39360518  10.61431113
  9.47871054  8.94998312  12.66210526
  9.40968866  9.14333627  7.47526674
  9.47684925  13.14738951  9.78182999
  8.48966140  11.77496263  10.37989007