Metallosilicon amino acid: MSA-d74f8ee1
1.0
  20.000000   0.000000   0.000000
  0.000000   20.000000   0.000000
  0.000000   0.000000   20.000000
      Si       P       N      Fe       H       S       F
       7       1       2       1      16       1       1
Cartesian
  12.19014445  10.41127820  10.35172244
  13.46877546  9.20011821  12.01403719
  7.86469729  10.20831812  10.38597914
  7.11952518  12.07184078  10.23934107
  9.99968003  10.24896668  10.49743389
  9.96769197  12.52538713  10.34668962
  9.87907571  8.05745344  10.30665127
  12.39307241  9.41127620  8.66642256
  12.81582155  7.65435553  7.23156515
  11.91165714  10.05776861  7.37445345
  6.63033349  11.56013457  12.46361547
  8.45911558  12.05635035  13.24773574
  6.81096413  12.78165753  13.37590949
  6.28338650  9.61180066  8.66950241
  5.15496640  10.85004706  8.15855562
  11.37597312  10.00713473  11.67538215
  14.67412239  9.70548572  12.61671991
  7.62187544  11.30546786  11.46153551
  9.44003373  11.90898083  9.11629948
  11.31084065  12.65442314  9.78640259
  10.10315491  12.07366648  8.87740598
  11.45643041  8.24933383  10.03060155
  9.01076388  7.25153223  11.15467037
  11.15045058  8.64848469  9.64069880
  13.39793640  6.29564018  7.50813297
  12.18778851  6.31072607  6.87383827
  13.15198585  8.03319068  8.72671386
  6.93290955  10.69520007  9.48302067
  7.23682726  10.15398044  9.71896337