Metallosilicon amino acid: MSA-4051e984
1.0
  20.000000   0.000000   0.000000
  0.000000   20.000000   0.000000
  0.000000   0.000000   20.000000
      Si       S       N      Ni       H       F
       7       2       2       1      15       1
Cartesian
  12.09092987  9.52404660  9.79350457
  10.91471767  9.83032834  11.72532843
  7.74228087  9.57328218  9.83189436
  9.26202796  10.45411936  10.52751629
  9.98234952  9.47562831  9.87625230
  9.90302985  11.69558701  9.92763317
  9.88776984  7.40680460  9.75667522
  12.79866854  10.98763656  10.70773582
  10.98931899  9.55380995  11.27901673
  12.25094222  10.39000818  9.45007253
  8.70628335  12.40029290  9.19011987
  8.38810797  14.20939180  7.91359545
  9.56080182  12.48442119  8.06042988
  7.82135747  7.70724756  11.25907111
  6.90950122  8.54202077  10.14351645
  13.30659294  10.39383025  10.37672407
  8.98840362  11.87798822  9.91366937
  9.40647402  13.05428354  9.54769195
  10.16490450  11.81262804  8.37438590
  11.34663532  11.36422129  9.53880753
  11.16764832  6.89686879  9.30433862
  9.61177285  8.73002971  9.22583140
  10.55809129  8.45381068  10.53873324
  10.11228917  9.21230181  10.24578993
  11.13355153  9.61537089  9.79855069
  12.38826284  9.17953298  10.53535749
  7.30153219  6.41772170  10.86734723
  7.30575427  8.75678678  12.29041040