Metallosilicon amino acid: MSA-25d64caa
1.0
  20.000000   0.000000   0.000000
  0.000000   20.000000   0.000000
  0.000000   0.000000   20.000000
      Si       S       N      Fe       H       F
       7       2       2       1      15       1
Cartesian
  10.53857772  12.11440354  11.17285060
  10.21587436  10.24785405  10.12903028
  10.62838043  9.42455052  8.44637930
  10.05365122  8.25470583  9.91521799
  9.23086148  10.72243642  9.75132835
  7.95123984  11.92927139  8.58327606
  7.98588236  9.39768078  11.25358269
  10.36242285  11.53582623  12.98321180
  11.46502809  10.04431243  11.63359418
  11.13320477  11.39531865  14.19765176
  10.55172956  9.91283099  8.24690068
  9.87958882  11.77753990  7.48911343
  10.44706559  9.19458634  7.01557103
  12.26933603  8.05417530  7.84522685
  13.01651164  6.55227683  7.91489389
  9.18249929  12.01233212  11.05713882
  10.61476725  8.87493734  8.66033531
  7.11287527  11.84665115  9.63302217
  9.35418066  11.69952670  8.57986163
  7.49918493  12.95816471  9.61138990
  8.32030720  7.96243691  11.24682413
  7.69310005  10.88427724  11.50211299
  8.71740139  8.76582589  12.32450818
  10.41897495  10.91547405  12.32623108
  10.88584489  10.57173670  10.46535738
  11.91993858  8.64299246  11.16365031
  11.23376678  7.23351637  8.55014619
  11.31780399  7.07435914  8.30159302