Metallosilicon amino acid: MSA-d6f322ef
1.0
  20.000000   0.000000   0.000000
  0.000000   20.000000   0.000000
  0.000000   0.000000   20.000000
      Si       N      Fe      Al       H       B       F
       5       3       1       1      16       1       1
Cartesian
  11.07173121  11.24616628  10.66902947
  12.30335688  10.39142436  9.56549826
  11.00285756  8.50447387  8.14038081
  9.96772526  9.26060651  9.42415367
  9.66212103  9.84940354  9.42645468
  8.47486395  11.07576397  8.10596474
  8.45726489  8.50899818  10.73074192
  11.31481630  11.76787169  12.93202761
  10.78094124  10.10631428  12.86076999
  10.40368246  9.54353706  14.20691462
  8.27592124  8.21737112  9.21324626
  8.87233943  7.59046044  7.93814913
  8.40889529  6.58682869  9.29088506
  11.63922374  10.86132486  7.88476213
  13.38235031  11.25420763  7.96580279
  11.63871937  12.59528635  11.01645505
  12.53718542  9.13004827  8.67165020
  10.53273619  10.41330118  10.21545832
  8.78529305  11.11961701  9.55644597
  8.96191380  10.41769531  9.23314976
  7.20652186  11.25495350  8.81097341
  9.06912786  9.14008606  9.46917780
  8.88877832  9.61179997  11.68899993
  7.44171036  8.04955831  9.87866999
  10.02803230  12.26125143  12.52762444
  9.78411059  10.12534722  13.90960335
  10.84928882  10.00877845  8.82573236
  10.25849126  11.10752446  7.84127827