Metallosilicon amino acid: MSA-6a5f855f
1.0
  20.000000   0.000000   0.000000
  0.000000   20.000000   0.000000
  0.000000   0.000000   20.000000
      Al       N      Si      Mo       S       P       H       C       F
       1       2       4       1       4       1      15       1       1
Cartesian
  12.59613772  9.54387872  9.42326636
  11.36763344  9.58717436  8.17204380
  7.83607296  9.48357311  9.35938799
  8.51553932  11.17765483  9.94653386
  10.23639120  9.55955291  9.51298086
  10.24895720  11.86006821  9.44947958
  10.31003637  6.99539937  9.45415708
  10.23243323  9.41757007  11.67273712
  10.30283825  9.42584036  7.14578514
  11.53453256  11.20365292  10.46257943
  12.92127826  10.61807323  9.93515786
  11.93696188  12.48959755  10.67732897
  8.65055628  11.90907863  11.62938470
  8.90952078  9.88713397  11.05910745
  7.79879958  10.07533365  12.42509438
  9.32032881  9.85894626  12.41037862
  8.85839462  10.92772815  10.87925866
  8.74874238  11.99856482  9.55920799
  10.80189564  11.00032929  7.63830531
  9.22830589  12.20297534  10.69093856
  11.22703813  11.19105959  8.49969509
  9.12570550  10.97097503  9.78743208
  9.88214486  10.45099636  9.70055247
  9.45976689  6.61965363  10.76662524
  10.92839223  5.99727292  10.29800581
  10.24871857  6.56159095  8.05804209
  10.43457416  9.49403097  10.32534371
  11.20217669  9.37426862  8.30341388
  9.37245961  10.14141237  11.99444257
  7.76366698  9.97661380  10.76333332