Metallosilicon amino acid: MSA-a73dc43f
1.0
  20.000000   0.000000   0.000000
  0.000000   20.000000   0.000000
  0.000000   0.000000   20.000000
      Si       S       N      Ti       P       H       F
       6       4       1       1       1      15       1
Cartesian
  13.10658775  9.73926962  9.51912909
  11.80058627  11.29844200  9.69764513
  8.19971371  9.64548062  9.62394027
  7.10412011  9.29987116  11.05646542
  10.66104834  9.72229922  9.48629159
  10.73602902  12.13232983  9.63865537
  10.64748539  7.18363110  9.54423879
  10.64063489  9.67777904  11.98296640
  10.63443464  9.72094777  7.35300378
  14.08743432  11.72042788  9.68851677
  15.33083952  11.01509568  9.30757676
  14.02915759  10.87572275  8.59574854
  5.73277308  9.06528360  9.19068380
  7.07884102  10.19589506  10.23986257
  6.07176916  10.50464895  8.83272580
  6.76569980  9.66522434  11.60364454
  6.52072634  10.67591072  12.91498065
  14.50346686  9.18703371  9.75019141
  6.92994026  8.32723293  12.11350138
  10.79014170  13.51626612  10.37722906
  10.61996826  10.84207339  9.00271767
  9.99112486  11.60043528  8.50938711
  9.85829282  8.53548983  9.87599667
  9.59206027  7.36708102  8.49296257
  11.13681529  7.44662749  10.90248472
  10.82424141  11.09815804  11.43465852
  11.16368129  11.12154681  7.34575876
  7.17679745  8.75014804  12.53068777
  8.26558858  10.06964801  11.38834908