Metallosilicon amino acid: MSA-e5d8453e
1.0
  20.000000   0.000000   0.000000
  0.000000   20.000000   0.000000
  0.000000   0.000000   20.000000
      Si       N      Fe      Al       H       C       S       F
       5       3       1       1      15       1       2       1
Cartesian
  10.91024008  11.29805203  11.73332662
  9.92268127  10.06355546  12.61008424
  10.85049040  8.61999147  9.04982619
  11.44383749  8.38793540  7.23798505
  9.63517262  9.91582356  10.43658060
  8.26945042  11.40344973  9.01923680
  8.24820811  8.65349034  11.72400115
  8.96021331  12.45310347  12.12167694
  10.42751351  11.43698934  12.12226728
  9.95128078  9.96952541  11.71777346
  10.54910137  7.79845653  8.74653412
  12.55702875  8.24185095  8.25197602
  10.45028126  9.50915952  9.89261765
  9.32658498  8.84925476  9.32689483
  12.51610084  9.11752089  7.52767656
  11.95889803  10.59615063  8.10496618
  12.20761480  10.46246514  11.66185501
  8.51055345  10.64045080  12.81553937
  12.94932747  8.84991106  7.09088919
  8.74012394  12.75921060  9.07499522
  8.27708019  12.61375720  8.31486086
  9.42621792  12.06023118  8.36309060
  7.72846360  8.34709129  10.40016400
  8.80894126  7.30706645  12.27832491
  7.07703157  9.39248009  12.40864497
  7.73926798  12.54010155  13.15541450
  9.64942185  11.11081908  10.79437947
  11.29786505  9.57799635  6.74028676
  11.61100771  8.02410972  7.27813144