Metallosilicon amino acid: MSA-26c46bf1
1.0
  20.000000   0.000000   0.000000
  0.000000   20.000000   0.000000
  0.000000   0.000000   20.000000
      Al       N      Si      Ni       P       H       S       F
       1       2       5       1       1      13       1       1
Cartesian
  10.79879519  11.23089221  11.57498920
  10.62999851  9.98656166  10.18337923
  10.85449358  8.61247147  8.91165802
  9.92452978  6.98087548  9.44176582
  9.46815182  9.96767048  10.24566256
  8.13729515  11.27231866  8.97389904
  8.09711643  8.61494137  11.51479681
  11.19480560  12.91791101  13.08306845
  11.06315964  11.56517346  13.60880004
  12.71872773  12.77662715  12.55480174
  9.90562576  8.98140925  10.86478436
  10.97712091  10.36270827  12.25309930
  10.49220220  10.40965863  10.59644269
  11.40490202  10.14114431  7.23862606
  10.06396889  10.06394350  6.18053322
  9.55965917  10.60136335  9.41421507
  10.75733060  7.01994322  8.31042844
  8.03367878  11.60433658  7.50397373
  8.02100234  9.90053354  8.41124477
  9.04495225  12.57537805  9.07856858
  8.68738824  8.72374232  12.98861270
  8.95147104  7.41584631  12.05240433
  7.27235026  9.42299527  12.38470703
  11.92766596  10.03722474  5.80113622
  12.01360815  8.81432970  6.82840260