Metallosilicon amino acid: MSA-e08137cf
1.0
  20.000000   0.000000   0.000000
  0.000000   20.000000   0.000000
  0.000000   0.000000   20.000000
      Si       N      Fe       H       B       F
       6       3       1      17       1       1
Cartesian
  10.34411331  11.48373223  11.79208130
  11.78282313  12.53938746  11.17190659
  10.44329709  8.70103215  9.10418724
  8.92778309  9.90611379  8.76123584
  9.04878234  10.12224220  10.47901460
  7.77876305  11.43296171  9.14553524
  7.74714615  8.83692285  11.75265825
  11.00953515  9.69816303  11.04061701
  11.26841648  11.01570219  13.03860304
  11.09617034  9.59554080  9.73039386
  9.78329802  11.19019900  7.48667319
  9.42344490  9.84159581  6.63628053
  9.15212859  11.51842443  8.76027481
  11.67976098  8.38563075  7.15757317
  12.87505421  7.56456394  6.22487924
  10.53853907  9.96531372  11.82649015
  12.89216590  13.21042715  11.87397118
  9.80910027  8.87673427  8.23714940
  6.80493678  10.22508493  9.45464001
  9.06588341  11.68324080  9.95922818
  8.57801727  11.00490855  10.21274038
  6.63313238  7.78078545  11.37609267
  7.50548620  9.76189836  10.72150474
  8.79751708  9.77525153  12.23415944
  10.79957885  9.71275613  13.44488387
  11.70394342  10.01054045  12.07344980
  10.98200503  10.52830848  11.67298324
  12.86865184  8.18727708  8.07642910
  10.66052565  7.44526076  6.55436393