Metallosilicon amino acid: MSA-800834fe
1.0
  20.000000   0.000000   0.000000
  0.000000   20.000000   0.000000
  0.000000   0.000000   20.000000
      Si       S       N      Ti       P       H       C       F
       5       5       1       1       1      15       1       1
Cartesian
  13.12683262  10.10698779  9.75141695
  13.41000435  12.09793444  8.79353034
  8.19051457  10.14274377  9.76141739
  7.08400525  10.52107842  8.33034530
  10.69869645  10.08836499  9.66141072
  10.62824159  12.50677777  9.84441157
  10.63459335  7.77606575  9.68474169
  10.81922286  10.14616754  12.10068867
  10.72433560  10.16869734  7.48508524
  13.42322246  7.87157903  10.22609836
  13.33868929  9.19501266  10.99971876
  13.26644733  8.78691660  9.00148717
  7.83456723  10.15581240  9.98738734
  5.75271160  9.87932193  9.86348347
  5.90569062  10.65170827  10.65275047
  4.52774738  10.56711412  11.30601783
  8.75033228  8.49250133  11.49360042
  8.33250461  8.62343792  13.08435914
  11.94008502  9.46439700  10.54214249
  7.70760090  11.63470377  7.49811544
  12.15875511  12.56008484  10.18301698
  9.77093461  11.41604648  9.66852157
  10.61515537  12.17105143  8.34348758
  10.10631250  8.93094966  10.45297514
  10.15354155  9.03156408  9.70278602
  11.87646511  8.40567240  10.03907793
  11.93902034  9.34660419  12.29387166
  9.66089015  11.11376243  7.09559361
  7.90901544  9.79292149  11.72180828
  9.71386450  8.35402018  10.43065248