Metallosilicon amino acid: MSA-937efc7b
1.0
  20.000000   0.000000   0.000000
  0.000000   20.000000   0.000000
  0.000000   0.000000   20.000000
      Si       N      Fe       P       H       C       S       F
       5       2       1       1      14       1       2       1
Cartesian
  11.03082046  12.08192197  12.48743546
  11.46196300  13.92675521  12.60130363
  10.95691432  9.33614520  9.71252869
  11.51959533  7.97720795  8.72787006
  9.69071698  10.62027796  11.06050429
  8.24659389  12.09771126  9.84654034
  8.37735510  9.33399844  12.49717037
  10.49518527  11.12881011  10.34898475
  11.71627304  11.93194227  9.95351365
  10.66619355  10.27848414  9.27014843
  11.76305626  7.31559107  6.92905420
  12.81917191  9.16217232  7.25130994
  10.95971806  5.39858449  6.22366130
  12.18092627  5.15988223  5.39951854
  8.76770191  8.64054345  9.77222150
  7.51217306  9.87151954  9.39314189
  9.91374748  11.94222591  11.44556435
  12.44678738  13.57323474  13.54364283
  10.68592587  7.65727908  9.91865487
  9.65016744  11.39496839  10.30226917
  9.88247010  12.19085907  9.62559173
  7.29804311  11.75215418  8.65876060
  8.54782253  9.50261216  10.84495773
  8.30553371  10.73413922  11.89128197
  8.04760655  8.53809612  11.30845394
  9.74010975  9.59608429  10.62610262
  7.31742766  8.85679923  10.35981314