Metallosilicon amino acid: MSA-186d6862
1.0
  20.000000   0.000000   0.000000
  0.000000   20.000000   0.000000
  0.000000   0.000000   20.000000
      Si       P       N      Ti       S       H       B       F
       5       2       1       1       2      17       1       1
Cartesian
  11.98515656  10.21233732  9.94984830
  11.50589015  8.26287029  8.78345091
  6.90014878  10.20996504  9.94700583
  8.62833714  11.02304522  9.81179303
  9.44377044  10.10543891  9.92079521
  9.37197175  12.59580415  9.81697644
  9.41510331  7.75996138  9.90221737
  9.49978297  10.16390792  12.25768338
  9.45825426  10.15090004  7.68457820
  13.48878652  11.00776010  8.73339771
  13.24076901  10.72828731  7.35215459
  13.55725687  9.94971591  9.68144728
  10.03627676  11.04289230  11.18799655
  9.87429263  11.64601643  9.78876466
  9.59419605  12.11800499  12.24351237
  9.11787127  9.77510507  10.71098015
  9.22894100  8.78135549  12.16005850
  12.69915950  9.07042023  9.30869196
  10.56840589  9.36776683  8.30165275
  8.98433229  9.71508387  9.18214481
  10.51713087  11.89764913  9.28357103
  8.64807099  13.22904190  11.13769902
  8.33192584  12.72481902  11.02376236
  10.59350408  8.18253068  9.15367342
  9.33943507  6.48961850  10.74922957
  8.78766209  8.16709131  11.18723983
  8.39895044  9.69937436  11.12474551
  9.46545700  8.77387931  7.06903835
  9.98293913  8.61269105  11.15272329
  9.33622134  8.53666596  11.39316763