Metallosilicon amino acid: MSA-9831914b
1.0
  20.000000   0.000000   0.000000
  0.000000   20.000000   0.000000
  0.000000   0.000000   20.000000
      Si       N      Ni       H       B       F
       6       3       1      17       1       1
Cartesian
  10.97104962  10.97423151  11.41652136
  9.34670984  11.01004441  12.43920348
  10.93003139  8.32899387  8.70703790
  12.54674293  7.76171148  7.98282685
  9.66809947  9.54889695  10.08688197
  8.38410526  10.93559751  8.80027606
  8.26945378  8.23981133  11.46409952
  9.97409385  11.39860501  13.04500162
  9.45240826  13.09682607  11.52090510
  9.05839667  10.43036818  12.76401338
  13.35382690  7.98032187  6.07921242
  13.80424616  6.99143001  7.09507081
  14.41134954  8.96702216  6.19339548
  9.82245079  9.07117137  10.71698072
  9.48812784  7.48915816  10.51106592
  10.26727182  9.82283328  10.68727626
  9.83974732  10.89893568  11.05233044
  11.95053389  8.41325612  6.80233895
  9.45302066  11.87230522  8.55007589
  8.33817976  10.04732759  10.00356438
  8.91608808  10.97976070  7.37699153
  6.91248401  7.55847416  11.60828528
  7.82205677  9.41164233  10.53761324
  8.28526220  8.45276599  9.99069425
  9.60089793  14.54485402  11.15233227
  8.50163854  13.50243798  10.49480363
  9.94782210  12.29256971  12.56541346
  10.07436486  10.50732652  10.88372923
  10.60953976  9.47132081  9.47205860