Metallosilicon amino acid: MSA-f0f1ffe7
1.0
  20.000000   0.000000   0.000000
  0.000000   20.000000   0.000000
  0.000000   0.000000   20.000000
      Si       N      Ni       P       H       B       F
       5       2       1       1      15       1       1
Cartesian
  10.59135993  10.90780207  12.12886953
  10.62968774  9.63432124  10.73145757
  10.60463060  8.26925548  9.37413018
  9.60918629  9.32671153  8.31204618
  9.23884580  9.62224653  10.77125896
  7.91698102  10.85633865  9.49812912
  7.93020289  8.33804538  12.01857661
  12.73379750  10.36339736  11.64047305
  11.30054322  10.63144474  11.61366294
  12.61705109  11.83345517  12.17662228
  8.89725501  10.87012750  7.09821040
  9.80128608  11.68379156  6.32644329
  7.66425236  11.67782726  7.46165364
  12.20636452  9.56813024  8.32016416
  12.96953714  9.09860587  9.74080866
  9.34895699  11.30643667  12.93261470
  11.98839322  9.30631186  10.28381654
  9.35904493  8.00864365  8.98552527
  6.60715641  10.43048464  9.66491304
  8.75575463  10.38768175  10.60166856
  8.97989617  11.44061043  8.64874019
  8.84867476  7.43164419  11.23319957
  8.74625041  9.11737657  12.87921836
  8.58758650  8.24761973  10.74772258
  12.38037422  10.88047570  9.11933692
  11.68693057  10.76121421  7.69073769