Metallosilicon amino acid: MSA-a061f328
1.0
  20.000000   0.000000   0.000000
  0.000000   20.000000   0.000000
  0.000000   0.000000   20.000000
      Si       B       N      Ni       P       H       S       F
       6       1       1       1       1      14       1       1
Cartesian
  12.49704340  10.06025552  10.42821710
  11.47133897  10.76620756  8.88616692
  8.08076693  10.04128167  10.53241668
  9.35752886  10.52161175  9.14476553
  10.27232754  10.07652232  10.52924261
  10.29839810  12.38980843  10.62995698
  10.37909525  7.85381899  10.55007735
  10.60391137  11.15999990  11.24096510
  10.85858072  11.69760851  12.54179082
  10.90867355  11.73079461  12.50248609
  11.19813304  10.16315474  7.83830349
  9.28720156  9.43634991  7.70679366
  11.38322984  10.80640765  6.60924545
  8.61350115  7.83962615  10.66576110
  8.26777459  7.50876815  9.05252312
  11.07835808  10.53275368  10.31259179
  11.39926237  12.08201440  9.72991007
  9.40657190  11.78254183  8.50256686
  10.87546431  13.01295649  9.29058855
  9.09129479  12.32424834  9.65335914
  9.70419010  10.90781920  10.94476755
  9.02229882  7.20395804  10.53436080
  9.32261250  7.24101049  11.20841035
  9.22493093  8.62194694  11.08441334
  8.89689877  6.36130756  10.56135601
  8.50061257  7.87722718  9.31896354