Metallosilicon amino acid: MSA-2bd0c499
1.0
  20.000000   0.000000   0.000000
  0.000000   20.000000   0.000000
  0.000000   0.000000   20.000000
      Si       B       N      Fe       H       S       F
       7       1       2       1      16       1       1
Cartesian
  11.92592870  9.68423029  10.51932754
  10.68932093  8.36337616  9.52668500
  7.52013916  9.74752265  10.48084227
  9.29982211  9.89803909  10.94065441
  9.67627865  9.61167400  10.48007809
  9.72141653  11.82975851  10.44838152
  9.66222457  7.41451984  10.44451890
  12.01095232  10.24561749  8.69596409
  12.10018352  12.28320371  7.52113073
  10.95448298  9.77397370  7.81137895
  8.32987151  8.21126743  9.75050132
  6.93330398  6.62679167  9.05282947
  8.31787159  9.59663608  9.31453082
  7.50886707  10.59244855  12.62918449
  6.88493094  10.60529796  14.13252974
  13.06096264  8.95599370  10.01228694
  11.89402925  7.37276647  9.31869960
  10.56973093  10.03263643  11.93187016
  8.47988566  12.54940247  11.27188896
  10.19660642  11.26877997  9.23796309
  10.87964654  11.45997191  11.26282202
  9.98949540  8.94228001  10.32144302
  8.49206669  7.49956666  9.45943438
  11.07701714  7.77647943  10.76883288
  11.75104019  13.35008007  6.44040628
  13.23924293  12.05289007  6.55964676
  11.50770099  11.27029209  6.72235070
  8.67718990  11.54252120  12.72240509
  8.64979075  11.44198235  12.22141277