Metallosilicon amino acid: MSA-5aa98d85
1.0
  20.000000   0.000000   0.000000
  0.000000   20.000000   0.000000
  0.000000   0.000000   20.000000
      Si       N       H       S       F
       5       3      12       1       1
Cartesian
  10.00000000  10.00000000  -8.27000000
  10.00000000  10.00000000  -6.53000000
  10.00000000  10.00000000  -4.79000000
  10.00000000  10.00000000  -3.05000000
  10.00000000  10.00000000  -1.31000000
  10.00000000  10.00000000  0.43000000
  10.00000000  10.00000000  2.17000000
  10.00000000  10.00000000  3.91000000
  10.00000000  10.00000000  5.65000000
  10.00000000  10.00000000  7.39000000
  10.00000000  10.00000000  9.13000000
  10.00000000  10.00000000  10.87000000
  10.00000000  10.00000000  12.61000000
  10.00000000  10.00000000  14.35000000
  10.00000000  10.00000000  16.09000000
  10.00000000  10.00000000  17.83000000
  10.00000000  10.00000000  19.57000000
  10.00000000  10.00000000  21.31000000
  10.00000000  10.00000000  23.05000000
  10.00000000  10.00000000  24.79000000
  10.00000000  10.00000000  26.53000000
  10.00000000  10.00000000  28.27000000