Metallosilicon amino acid: MSA-589f5461
1.0
  20.000000   0.000000   0.000000
  0.000000   20.000000   0.000000
  0.000000   0.000000   20.000000
      Al       N      Si      Ti       S       P       H       C       F
       1       2       4       1       4       1      15       1       1
Cartesian
  13.13236593  10.56388509  9.93394681
  11.62803206  11.44990410  9.32882831
  8.36120381  10.67149313  9.99923129
  9.42882111  9.17146939  10.74047019
  10.71212012  10.58346503  9.97868535
  10.72396121  13.09249972  9.94521969
  10.81256214  8.18733564  9.93851639
  10.77920464  10.64843544  12.19625868
  10.75640807  10.64017433  7.67346282
  11.96528196  9.49564982  8.38914747
  11.74674078  9.10796515  6.91869440
  12.42985748  7.95116135  8.30762786
  9.03263423  7.38914024  10.37629485
  8.29458000  5.67023775  11.33150373
  7.79950940  9.06937269  10.78512697
  8.60894312  8.82109454  11.87421164
  6.31979595  11.32250160  11.09660374
  6.77338746  12.87966399  10.73774153
  12.81557697  11.07124689  8.68318629
  10.71514776  9.48924494  10.04488910
  9.57155958  13.81384503  10.64938418
  10.76624626  11.79370258  9.06917055
  9.92325926  14.14120167  9.29900563
  11.13276848  9.55579870  9.80369584
  11.15830706  6.90812512  9.20318769
  11.06001278  6.68391803  10.03732951
  10.55775266  9.58023803  13.35932903
  9.82435848  10.37691125  8.88515741
  6.71085839  9.74975217  11.13822246
  6.45874282  10.12056659  10.27587060