Metallosilicon amino acid: MSA-8f5bceeb
1.0
  20.000000   0.000000   0.000000
  0.000000   20.000000   0.000000
  0.000000   0.000000   20.000000
      Si       P       N      Fe       H       S       F
       6       2       1       1      14       1       1
Cartesian
  10.77526206  11.33897127  11.06333282
  12.49120761  11.43635525  9.60592339
  10.72591761  8.68458775  8.45467059
  10.26530244  10.16149908  9.39552792
  9.40675724  10.12001939  9.93606030
  8.09819373  11.29169545  8.46686090
  8.10588621  8.82056318  11.20015775
  12.99599759  10.81815766  11.31056814
  13.48925586  9.60671233  11.83638723
  13.11980375  12.11315010  12.07707778
  10.94492532  8.02029413  9.29265380
  11.54950220  7.91720890  11.26148792
  11.94798221  7.32940955  9.87974635
  8.92203065  10.18633555  9.05488258
  8.19983120  11.21573252  7.85053435
  11.18344531  10.00478955  11.06708951
  13.48501918  12.35154562  10.30299165
  9.05147108  10.79636713  8.54680849
  6.85412378  11.44196357  9.24419980
  7.30649799  12.26828439  7.57438288
  7.47240019  10.63721206  9.61723547
  7.60740219  7.37115286  11.57692466
  9.09578521  9.84230618  10.72605305
  8.34973584  8.20278817  12.43527394
  9.16006477  8.84127659  8.27938738
  9.39619878  9.18162178  9.94378137