Metallosilicon amino acid: MSA-6417768d
1.0
  20.000000   0.000000   0.000000
  0.000000   20.000000   0.000000
  0.000000   0.000000   20.000000
      Si       N      Ni      Al       H       C       S       F
       5       3       1       1      15       1       2       1
Cartesian
  10.76916418  11.17167878  11.82586924
  12.06850063  10.07173138  10.86851932
  10.81860107  8.43582597  9.07684920
  12.23321269  7.33533284  9.77762551
  9.50051410  9.73256415  10.55155198
  7.98626781  11.03527238  9.19513872
  8.18065554  8.35522148  11.79045656
  9.41909506  11.53905763  10.00227396
  8.52177225  11.74289038  8.38191536
  8.82314941  11.50522885  9.77117682
  11.36554508  8.94577923  10.02776912
  9.68301169  9.31038561  8.65622708
  10.88560974  7.13803163  11.00572928
  11.77536493  8.18809957  10.50145551
  11.06503145  10.56156303  10.03581422
  11.95783185  11.95254864  9.97661892
  12.01375503  11.67419407  11.37207819
  10.73768957  10.13648404  11.31408494
  11.64649585  6.40682597  8.62727336
  9.55082553  11.58343076  9.09174361
  9.05727138  11.79733369  8.47392907
  6.77542658  10.58630052  8.67081390
  9.01960056  8.38482432  10.52450403
  7.90670933  7.99762942  10.32944076
  9.40991605  8.27589392  10.96332346
  9.07313950  12.98629385  9.67405806
  7.38264365  11.30300389  9.29486314
  10.95821719  11.24601305  8.72761117
  11.41498228  10.60056096  11.49128550