Metallosilicon amino acid: MSA-93e51e67
1.0
  20.000000   0.000000   0.000000
  0.000000   20.000000   0.000000
  0.000000   0.000000   20.000000
      Si       B       N      Fe       H       F
       6       2       2       1      17       1
Cartesian
  12.74477805  10.10850801  9.82227849
  13.50980056  9.40648195  11.54708637
  8.34742696  9.93060657  9.79677673
  8.66052833  11.64460394  10.80300383
  10.63201970  10.06039288  10.00562534
  10.55239592  12.31133394  9.94755433
  10.52333012  7.82794633  9.88064757
  11.74635475  11.62813220  9.92752274
  10.86325962  9.90221050  8.43991113
  10.67170345  11.85169101  11.13123716
  9.07100399  11.18849166  9.05986086
  10.47275786  10.59345100  9.36919625
  8.64625366  11.02512245  10.39095005
  6.51159925  8.52590084  10.34130133
  7.66020793  7.50333094  10.90950954
  12.74841573  11.11047060  8.76993298
  14.96900655  8.89175493  11.26482112
  7.94852699  10.74810283  9.83986622
  9.23664230  11.89383673  9.18384239
  11.17155039  11.66605121  11.16720549
  9.12783969  12.70148631  9.88111885
  9.61394218  8.85545592  10.51932262
  9.84401588  7.00576753  11.00618132
  9.36343734  6.92894031  10.24658000
  10.00882010  10.93619537  9.05473503
  10.32166010  9.36264925  9.74697484
  12.09597556  9.77018696  7.44599675
  5.08902047  8.40953494  9.61835912
  7.84772657  8.21136289  10.88260153