Metallosilicon amino acid: MSA-cb94d1c5
1.0
  20.000000   0.000000   0.000000
  0.000000   20.000000   0.000000
  0.000000   0.000000   20.000000
      Al       N      Si      Ti       S       P       H       B       F
       1       2       4       1       2       1      16       1       1
Cartesian
  13.23713027  10.39709227  9.87634411
  13.49417826  8.53789642  10.22273247
  8.25482868  10.52133095  9.85728436
  8.54534313  9.81654115  11.69315167
  10.82346451  10.44257707  9.84907953
  10.77299943  12.94416416  9.94655179
  10.79870842  8.09092592  9.93900375
  10.81145952  10.50095002  12.17549737
  10.88774350  10.43023268  7.65321387
  11.93577435  11.60503908  8.37478855
  12.01915092  10.80410417  7.06966377
  10.79509322  11.73650926  7.75350142
  9.66285761  8.33500151  12.56120163
  8.59243909  9.13823667  11.65836770
  8.40000971  8.81780399  11.91187955
  6.60676217  9.24339748  8.78135201
  5.57835746  10.40891529  9.69983058
  12.69386561  7.86435848  11.34750903
  7.16024065  9.38014282  12.23721852
  12.02680216  12.23361217  10.22389339
  11.83099161  11.80644903  10.02716286
  9.37184417  12.54102314  9.39547558
  9.57493568  8.50754117  10.58759712
  10.49567947  8.52247147  11.24864552
  11.66956511  6.88324592  10.09577571
  9.56501232  9.96391181  11.61473444
  10.35838353  11.70302892  8.26866495
  6.86758027  10.53499125  8.04336299
  7.16879917  8.28850574  7.88651575