Metallosilicon amino acid: MSA-de0b8509
1.0
  20.000000   0.000000   0.000000
  0.000000   20.000000   0.000000
  0.000000   0.000000   20.000000
      Si       N      Fe       P       H       S       F
       6       2       1       1      14       1       1
Cartesian
  10.19222895  10.89740077  11.42322632
  10.74637912  12.70989250  11.27223018
  10.09962090  8.28201644  8.70200443
  11.81278789  8.63966403  7.93834326
  8.75132041  9.54308699  10.03373478
  7.45411109  10.92477000  8.56610429
  7.48266337  8.26443732  11.30425263
  11.97521460  10.03199989  12.02830983
  11.26585625  11.10851111  11.58244117
  13.06521933  9.78996592  12.98433305
  12.17370115  11.01460239  7.83303145
  12.10873418  10.78315721  10.01448833
  12.12143810  12.30370742  8.74323020
  11.23131477  10.16137117  9.66137811
  9.74306655  10.34781287  10.27255180
  10.25273750  9.40735548  11.58660332
  10.54444044  13.97616347  11.87687439
  12.72040142  7.61177714  7.84729907
  7.17275745  9.92073367  7.70257924
  8.09102810  9.57077251  8.27525047
  8.46001069  11.87960344  7.85683945
  6.40760560  7.97161311  12.27906731
  6.01764703  8.22990912  10.96775907
  8.37669680  7.13266075  11.43041399
  11.68602473  8.88153200  8.76769755
  10.04699359  10.61548326  9.04995631