Metallosilicon amino acid: MSA-7f8b0f22
1.0
  20.000000   0.000000   0.000000
  0.000000   20.000000   0.000000
  0.000000   0.000000   20.000000
      Al       N      Si      Ti       S       P       H       F
       1       2       5       1       3       1      15       1
Cartesian
  12.79681702  9.91514974  9.46621032
  13.55104171  8.19955551  9.39113251
  7.98346648  9.95017463  9.42252270
  9.34001430  10.47877836  10.50997110
  10.43189301  9.97379458  9.48998305
  10.39008877  12.40398567  9.43627377
  10.32502687  7.43702466  9.38844111
  10.39052630  9.96483883  11.87458241
  10.43661190  9.89970703  7.08432632
  15.06269977  10.38405399  9.94832581
  13.91150772  10.22116903  8.91338543
  14.64531787  10.46623005  8.51723756
  7.60932661  11.22571613  11.86783242
  6.75692415  12.00220687  10.07968787
  7.47460596  11.17798344  13.36026293
  6.37087820  8.99693967  10.92399706
  5.97438706  7.59650656  9.95215323
  14.90843958  8.93998175  9.34554529
  10.42308460  10.33112072  11.60706679
  9.94502637  11.47908563  10.48055944
  9.67411366  13.17108939  10.43116689
  9.01112194  13.02274524  9.52354436
  10.49979711  7.84082992  7.99890334
  9.14253172  8.21175146  9.72607761
  9.50601029  6.59585241  8.57815637
  9.39970406  10.18514751  12.67258790
  10.87116691  11.14961461  7.93987238
  5.96337309  9.82134919  9.90030064
  7.20449697  8.95761744  12.16989339