Metallosilicon amino acid: MSA-ac66c0b1
1.0
  20.000000   0.000000   0.000000
  0.000000   20.000000   0.000000
  0.000000   0.000000   20.000000
      Si       B       N      Fe       P       H       S       F
       6       1       1       1       1      14       1       1
Cartesian
  10.47919155  11.39175963  11.30529752
  12.43064998  11.36090593  11.61758961
  10.53238433  8.87915552  8.71365197
  9.22304015  7.44681314  8.91835948
  9.28900887  10.23419821  10.01751794
  7.87196216  11.45535627  8.65153730
  7.88509041  8.72270057  11.27021724
  11.13160078  12.61519668  9.45886146
  12.34557745  12.27916002  10.31827852
  10.47891790  13.66701145  10.55091378
  9.94086267  6.75474516  11.09774571
  8.94704868  8.41915872  12.40299509
  9.92517098  5.68077271  10.11549020
  11.55365692  10.80468884  7.87677589
  12.99422575  10.35549263  8.69141105
  11.36546321  12.45434999  11.95907569
  13.61170374  12.15294515  12.23444633
  8.40671692  7.27161204  10.24747687
  8.71982367  12.31634345  7.75862801
  7.36733534  10.16474477  7.86091219
  7.43923229  11.71828557  10.02267461
  8.26692212  7.49579938  10.85890790
  8.59142675  8.22686396  12.42062265
  8.42062797  8.69637812  9.81976243
  10.39072729  9.84231168  7.43022150
  12.39163214  9.59325040  8.38062906