Metallosilicon amino acid: MSA-adfba2a5
1.0
  20.000000   0.000000   0.000000
  0.000000   20.000000   0.000000
  0.000000   0.000000   20.000000
      Si       B       N      Mo       S       P       H       F
       6       1       1       1       3       1      16       1
Cartesian
  12.01528740  10.00953147  10.15421951
  13.48525383  9.01375380  11.06321697
  7.10115086  9.91874580  10.19951886
  8.28698945  11.29885010  9.61133040
  9.68110577  10.00100557  10.18034622
  9.49606044  12.35567275  10.14890849
  9.58379567  7.55793510  10.13437377
  9.59797071  10.03293925  12.48828530
  9.50485028  9.93343486  7.84212827
  12.03206702  11.52185017  11.85278344
  13.01416982  10.80745473  11.00530232
  13.07348332  11.02933380  12.44887936
  9.09078732  9.22098800  10.08212265
  10.80454644  9.51790206  9.03054074
  8.11114560  8.13249667  10.58809859
  8.25962231  9.37631371  8.17196127
  9.08968937  7.98566578  8.66664120
  11.94267757  10.22586944  8.72230564
  14.41567844  8.95540765  12.32704822
  7.37492360  12.54264302  9.17651560
  8.55640241  13.11554495  9.36417032
  10.95676773  12.43071831  10.58528186
  10.20854008  13.40071112  10.89705695
  8.35068605  8.15084787  9.63806539
  10.11793784  6.88764850  8.85701520
  10.72167449  8.07073675  9.34653080
  10.62200850  9.35147810  13.43227110
  8.85726013  11.02199962  7.12934899
  6.81032998  9.71776134  7.79134078
  8.83713758  8.41475971  9.06439180