Metallosilicon amino acid: MSA-8ec52001
1.0
  20.000000   0.000000   0.000000
  0.000000   20.000000   0.000000
  0.000000   0.000000   20.000000
      Si       B       N      Ni       H       S       F
       7       1       2       1      16       1       1
Cartesian
  12.20127212  10.18302618  9.84904429
  14.20068644  10.48108690  10.12182582
  7.90528789  10.12448638  9.90597297
  6.14778663  9.73353643  9.47239639
  10.04406843  10.11201928  9.88457820
  10.09814120  12.31000923  9.89252671
  10.05325646  7.88018381  9.88569140
  13.90468867  10.53227405  9.01178571
  15.94594901  10.38343184  10.37866802
  13.95889940  9.05725061  9.33165515
  4.29472367  8.43321899  9.73850904
  5.00064942  7.47277649  11.43547081
  4.06898572  6.96976860  9.88653173
  6.11002245  10.78787975  11.26858926
  7.23353660  11.48929404  10.08088364
  11.93503021  9.04544363  10.84842969
  15.06187683  11.65987650  9.95629992
  6.49863778  9.02102106  8.31594889
  9.81506238  12.36738810  8.50136462
  10.63359754  11.32302115  8.99731521
  10.00429750  13.49952082  10.92257796
  8.64723844  7.52767247  10.05404823
  9.01602560  7.11147287  10.46371698
  9.92303636  8.95959809  8.86341185
  14.43613085  10.92435586  10.19362727
  16.59222801  10.25428591  9.11566950
  15.15799809  9.14116550  10.59024248
  4.60800678  11.05205080  11.12668768
  6.50287951  12.16288464  11.90653057