Metallosilicon amino acid: MSA-eb8c2770
1.0
  20.000000   0.000000   0.000000
  0.000000   20.000000   0.000000
  0.000000   0.000000   20.000000
      Si       N      Ni      Al       H       S       F
       6       3       1       1      15       1       1
Cartesian
  9.97302397  11.70190101  11.05966183
  11.13118238  10.74812465  9.75952621
  9.96466370  8.82720530  8.39984198
  10.29741178  7.54765728  9.58114461
  8.60235974  10.33369087  9.68665999
  7.36069149  11.63951707  8.39603798
  7.33362747  9.03235328  11.08130667
  9.80549850  12.87330436  13.04427773
  11.12590395  12.41834209  11.76464351
  10.70459956  11.03211789  12.10835164
  11.72410946  9.24361415  10.33344035
  12.96676682  9.90273619  11.77209698
  11.14945680  8.19725903  9.45706800
  12.17468339  8.31302772  7.78420717
  13.57653596  9.30036767  7.38428259
  9.55674057  11.04617332  12.34825736
  11.40637991  9.66461052  8.86431457
  10.93896840  6.98576202  8.33554907
  8.62640583  11.03433091  8.02110247
  7.10393584  12.71267675  7.32468647
  8.03149059  11.64679953  9.67025233
  7.51980101  7.78737513  11.96689755
  7.15934020  7.56935701  10.75460328
  7.38441895  8.18893316  9.84310530
  8.44850914  13.42720766  13.67748315
  11.52394175  12.04777988  13.22988453
  11.75133013  9.65888235  7.28688427
  12.65822272  7.11889322  7.06443243