Metallosilicon amino acid: MSA-24d45844
1.0
  20.000000   0.000000   0.000000
  0.000000   20.000000   0.000000
  0.000000   0.000000   20.000000
      Si       B       N      Ti       S       P       H       F
       6       1       1       1       3       1      16       1
Cartesian
  12.45495370  10.38705581  10.09355437
  14.34416604  9.86057086  9.53768174
  7.55259480  10.34646987  10.12871187
  6.34329387  10.33335327  8.64873800
  10.06091560  10.33933835  10.09489033
  9.99664236  12.79941817  10.13013442
  10.12622175  7.90500074  10.12374585
  10.01068726  10.41440976  12.44385761
  10.04527028  10.29343141  7.82029216
  12.90545634  8.34695251  9.20107407
  12.35671233  7.29434441  8.31577964
  14.35354523  8.55511256  9.58879849
  6.09704985  8.75063268  10.51267933
  7.89986403  7.78270045  10.82601266
  7.43706804  8.29436066  10.78232735
  8.77392347  9.14638889  11.73061131
  10.05865564  9.38667407  10.83833103
  11.64165674  10.16174415  8.87083069
  13.28988515  10.10208179  10.61896781
  6.06351062  11.81501094  8.45898368
  8.78878642  12.83200846  10.82412351
  11.69066928  12.67856359  10.14269216
  9.07479942  13.92965831  9.83825348
  10.72587952  7.55276233  8.69784984
  11.15880247  7.93646239  9.05682315
  9.99270086  9.20170014  9.25979975
  10.48149248  11.68708139  13.14709198
  10.13531354  11.79142565  7.25795903
  8.87022462  10.46591343  11.30753625
  7.26925828  9.60937296  11.70186844