Metallosilicon amino acid: MSA-35bf3a02
1.0
  20.000000   0.000000   0.000000
  0.000000   20.000000   0.000000
  0.000000   0.000000   20.000000
      Si       P       N      Ni      Al       H       S       F
       6       1       2       1       1      15       1       1
Cartesian
  10.43013819  11.95792200  10.66322453
  10.95303523  14.15251485  11.22238268
  10.46025909  9.28074446  8.00426378
  9.47521797  8.20764093  9.18533112
  9.15061987  10.56826926  9.25794510
  7.88104822  11.83465333  7.97089932
  7.85557572  9.23603406  10.62847291
  11.94844519  10.87000172  11.98944825
  13.52049802  11.96200241  12.16430157
  14.67110453  12.12297647  11.31242535
  9.80325390  5.88077915  8.97888488
  10.39711032  7.01435709  7.06930737
  9.06678574  6.36243879  10.18547093
  11.05958162  8.43207412  10.12786980
  10.79723238  8.83154370  11.71255588
  10.27046236  12.25193549  9.22300923
  12.30810162  14.65034015  11.59818912
  8.34498172  7.35734887  8.98116525
  8.11768530  11.59989993  9.38926589
  7.06554946  11.51531462  6.75936130
  6.82996655  10.96481565  8.77922874
  7.16224222  8.31487556  9.62561794
  8.38153140  8.52899112  9.55641353
  9.32235475  9.06873108  10.61880183
  10.51934207  11.11688158  12.41200896
  12.09880361  11.59371486  12.59510762
  12.41348074  8.46990294  9.51761335
  9.69559220  7.85329578  10.47143378