Metallosilicon amino acid: MSA-557cd540
1.0
  20.000000   0.000000   0.000000
  0.000000   20.000000   0.000000
  0.000000   0.000000   20.000000
      Si       S       N      Mo       P       H       C       F
       5       5       1       1       1      15       1       1
Cartesian
  12.23834506  10.62931768  9.54127660
  11.05876938  8.80286384  9.77997171
  7.26523389  10.58161594  9.46093500
  8.15846862  9.36567839  10.79279543
  9.78821280  10.48613222  9.46179923
  9.82088673  13.01031304  9.42651047
  9.80941104  8.09190615  9.48223154
  9.78176017  10.56092489  11.78306126
  9.81974519  10.60330218  7.13719388
  13.11502767  8.72864166  10.33148714
  11.57980369  8.97308876  10.59584825
  12.34955227  8.81361984  9.00953371
  8.81855314  7.79863894  10.16073322
  9.72890289  8.12350845  12.12066045
  10.51448089  9.03234210  9.83731694
  11.94468204  8.96497462  9.52101506
  8.80631510  9.66396804  11.09174174
  8.09923788  11.00783781  10.30169196
  13.19424362  11.74474886  9.40399934
  7.15378854  10.45323865  11.03285698
  8.72990536  13.99102256  9.24296794
  10.58160153  13.19591049  10.75877787
  8.54329418  12.23793840  9.05999104
  10.34024901  9.60247139  9.44121376
  10.83141554  7.48828585  10.37318351
  11.24657429  7.46732335  9.68668483
  9.76809246  11.12379256  10.26700464
  9.07869161  10.85139518  5.96980834
  8.81244760  9.74319320  12.50273115
  9.02230782  8.86200498  12.42497702