Metallosilicon amino acid: MSA-352681c2
1.0
  20.000000   0.000000   0.000000
  0.000000   20.000000   0.000000
  0.000000   0.000000   20.000000
      Si       N      Ni       H       S       F
       7       3       1      16       1       1
Cartesian
  11.41641790  11.95078178  11.17151409
  9.73124733  11.60725422  12.08438522
  11.38107046  9.25615871  8.62460005
  11.80686884  7.73044136  7.51596049
  10.06893831  10.65212415  9.88180891
  8.75423399  11.98002835  8.57697628
  8.70237754  9.30315018  11.17216135
  10.04968083  11.35998811  12.37131224
  7.99603237  10.29765265  12.74667265
  9.49413917  11.59175119  11.14035763
  10.12928268  6.42416948  8.59784093
  9.46101886  4.49730668  7.94698747
  9.37036429  5.28922752  8.23326545
  12.93471849  10.74247140  7.65591269
  13.89319253  9.52623405  8.47833280
  12.50085873  12.14253325  10.25319376
  9.26999716  11.27512671  13.45719491
  13.01932817  6.73590823  7.51548003
  7.72600540  10.96867388  7.98987171
  8.98418164  10.55104337  8.02398812
  8.33551153  12.86364125  7.45742515
  8.74687561  10.79364116  11.14946895
  8.22676488  7.95924962  11.41113360
  8.76190032  9.63944204  12.68955585
  8.49546022  11.74531344  12.37287590
  7.09044554  10.52124041  11.49820515
  6.90394341  9.48145159  13.16696052
  13.85525138  10.83214153  8.86359053
  12.89389243  12.28185369  7.95296758