Metallosilicon amino acid: MSA-873d7435
1.0
  20.000000   0.000000   0.000000
  0.000000   20.000000   0.000000
  0.000000   0.000000   20.000000
      Al       N      Si      Ni       H       S       F
       2       3       5       1      14       1       1
Cartesian
  10.70935429  10.44925380  12.19721788
  12.07679793  9.49978958  11.37961684
  10.69040688  7.80816394  9.55135343
  10.86218004  9.55854401  9.20491924
  9.20558500  9.10879618  10.94748100
  8.08553884  10.40593924  9.57967964
  8.00235943  7.85130843  12.24049514
  11.12579426  12.31350667  10.92574981
  12.33332528  12.82520724  9.68772544
  11.32368106  11.99512492  10.43100841
  8.58528195  9.50873904  8.58289319
  10.32779197  10.51039907  8.82632996
  9.83935736  10.40892231  8.53236732
  10.51210430  10.01222607  8.87784494
  9.40688547  8.80853846  8.74027307
  11.00740648  10.34545890  10.63062532
  11.02735000  10.62758516  10.34674879
  9.11293395  10.36089237  8.59861016
  8.58279715  9.66463579  8.38441000
  9.45153748  10.73123538  9.33803525
  7.84853774  8.67508788  13.23973879
  6.94721074  8.25979915  11.40803207
  8.61177804  7.51173354  10.85268586
  10.80204192  10.96866748  10.09876994
  12.64090235  11.76395770  10.69879035
  11.68709964  9.46726931  8.16378129
  9.19396046  10.55921837  8.53481687