Metallosilicon amino acid: MSA-9e34e5ac
1.0
  20.000000   0.000000   0.000000
  0.000000   20.000000   0.000000
  0.000000   0.000000   20.000000
      Si       P       N      Ni       H       C       S       F
       6       1       2       1      16       1       2       1
Cartesian
  11.25126954  10.86335254  11.20457690
  10.85558665  11.64620939  13.35366885
  11.32883307  8.24852744  8.50525947
  10.28806745  9.54417314  7.33702135
  9.85320582  9.59157055  9.86373087
  8.58241990  10.89751360  8.57811393
  8.68041704  8.22175127  11.21841825
  11.28272735  12.30687314  12.46262391
  10.27324588  11.78301767  10.35600811
  10.64606845  13.48598572  13.34159116
  9.21187648  8.76585633  8.73122982
  9.42170705  7.35932191  7.17374362
  8.70483667  6.75471878  9.58943093
  7.43457006  6.89442166  8.90364525
  11.93675516  8.03707100  10.78306186
  12.91337040  9.00046781  9.72178473
  11.14026308  12.46083909  10.92536802
  10.80632080  12.47696396  11.94744749
  9.83497323  9.13251573  6.11053041
  8.54526615  11.23739470  7.08006332
  8.09235937  12.03140759  9.26749646
  7.15420374  10.52247954  8.58887788
  7.22356332  8.85375046  10.98159099
  8.21360410  8.70432854  9.78367897
  9.24575530  8.53964817  9.89168897
  10.73089393  13.19534968  10.24949151
  9.75560070  11.74461845  11.85465344
  11.39207149  12.60886761  9.85690501
  13.22005652  7.68407567  10.22132997
  11.98011130  7.40692887  12.11696855